<?xml version="1.0"?>
<VTKFile type="UnstructuredGrid" version="0.1" byte_order="LittleEndian">
  <UnstructuredGrid>
    <Piece NumberOfCells="64" NumberOfPoints="125">
      <PointData Scalars="P" Vectors="u">
        <DataArray type="Float32" Name="P" NumberOfComponents="1" format="ascii">
          101300 101300 101300 101300 101300 101300 101300 211947 101300 101300 101300 313630
          101300 101300 101300 211947 101300 101300 101300 101300 101300 101300 101300 313630
          101300 379420 101300 313630 101300 101300 101300 101300 101300 211947 101300 313630
          101300 211947 101300 101300 101300 101300 101300 101300 101300 101300 101300 101300
          101300 101300 101300 101300 101300 313630 101300 379420 101300 313630 101300 101300
          101300 379420 2.73824e+06 379420 101300 101300 313630 379420 313630 101300 101300 101300
          101300 101300 101300 101300 101300 101300 211947 101300 313630 101300 211947 101300
          101300 101300 313630 379420 313630 101300 101300 211947 313630 211947 101300 101300
          101300 101300 101300 101300 101300 101300 101300 101300 101300 101300 101300 101300
          101300 101300 101300 101300 101300 101300 101300 101300 101300 101300 101300 101300
          101300 101300 101300 101300 101300
        </DataArray>
        <DataArray type="Float32" Name="x_H2O" NumberOfComponents="1" format="ascii">
          1 1 1 1 1 1 1 0.962842 1 1 1 0.941921
          1 1 1 0.962842 1 1 1 1 1 1 1 0.941921
          1 0.933797 1 0.941921 1 1 1 1 1 0.962842 1 0.941921
          1 0.962842 1 1 1 1 1 1 1 1 1 1
          1 1 1 1 1 0.941921 1 0.933797 1 0.941921 1 1
          1 0.933797 0.933311 0.933797 1 1 0.941921 0.933797 0.941921 1 1 1
          1 1 1 1 1 1 0.962842 1 0.941921 1 0.962842 1
          1 1 0.941921 0.933797 0.941921 1 1 0.962842 0.941921 0.962842 1 1
          1 1 1 1 1 1 1 1 1 1 1 1
          1 1 1 1 1 1 1 1 1 1 1 1
          1 1 1 1 1
        </DataArray>
        <DataArray type="Float32" Name="x_N2" NumberOfComponents="1" format="ascii">
          0 0 0 0 0 0 0 0.0371578 0 0 0 0.0580795
          0 0 0 0.0371578 0 0 0 0 0 0 0 0.0580795
          0 0.066203 0 0.0580795 0 0 0 0 0 0.0371578 0 0.0580795
          0 0.0371578 0 0 0 0 0 0 0 0 0 0
          0 0 0 0 0 0.0580795 0 0.066203 0 0.0580795 0 0
          0 0.066203 0.0666893 0.066203 0 0 0.0580795 0.066203 0.0580795 0 0 0
          0 0 0 0 0 0 0.0371578 0 0.0580795 0 0.0371578 0
          0 0 0.0580795 0.066203 0.0580795 0 0 0.0371578 0.0580795 0.0371578 0 0
          0 0 0 0 0 0 0 0 0 0 0 0
          0 0 0 0 0 0 0 0 0 0 0 0
          0 0 0 0 0
        </DataArray>
        <DataArray type="Float32" Name="X_H2O" NumberOfComponents="1" format="ascii">
          1 1 1 1 1 1 1 0.943388 1 1 1 0.912507
          1 1 1 0.943388 1 1 1 1 1 1 1 0.912507
          1 0.900703 1 0.912507 1 1 1 1 1 0.943388 1 0.912507
          1 0.943388 1 1 1 1 1 1 1 1 1 1
          1 1 1 1 1 0.912507 1 0.900703 1 0.912507 1 1
          1 0.900703 0.9 0.900703 1 1 0.912507 0.900703 0.912507 1 1 1
          1 1 1 1 1 1 0.943388 1 0.912507 1 0.943388 1
          1 1 0.912507 0.900703 0.912507 1 1 0.943388 0.912507 0.943388 1 1
          1 1 1 1 1 1 1 1 1 1 1 1
          1 1 1 1 1 1 1 1 1 1 1 1
          1 1 1 1 1
        </DataArray>
        <DataArray type="Float32" Name="X_N2" NumberOfComponents="1" format="ascii">
          0 0 0 0 0 0 0 0.0566124 0 0 0 0.0874928
          0 0 0 0.0566124 0 0 0 0 0 0 0 0.0874928
          0 0.0992965 0 0.0874928 0 0 0 0 0 0.0566124 0 0.0874928
          0 0.0566124 0 0 0 0 0 0 0 0 0 0
          0 0 0 0 0 0.0874928 0 0.0992965 0 0.0874928 0 0
          0 0.0992965 0.1 0.0992965 0 0 0.0874928 0.0992965 0.0874928 0 0 0
          0 0 0 0 0 0 0.0566124 0 0.0874928 0 0.0566124 0
          0 0 0.0874928 0.0992965 0.0874928 0 0 0.0566124 0.0874928 0.0566124 0 0
          0 0 0 0 0 0 0 0 0 0 0 0
          0 0 0 0 0 0 0 0 0 0 0 0
          0 0 0 0 0
        </DataArray>
        <DataArray type="Float32" Name="u" NumberOfComponents="3" format="ascii">
          0 0 0 0 0 0 0 0 0 0 0 0
          0 0 0 0 0 0 0 0 0 -2.10146e-05 -2.10146e-05 -2.10146e-05
          0 0 0 0 0 0 0 0 0 2.8671e-20 -3.41294e-05 -3.41294e-05
          0 0 0 0 0 0 0 0 0 2.10146e-05 -2.10146e-05 -2.10146e-05
          0 0 0 0 0 0 0 0 0 0 0 0
          0 0 0 0 0 0 0 0 0 -3.41294e-05 1.19221e-20 -3.41294e-05
          0 0 0 6.95077e-21 -7.51467e-20 -0.000119676 0 0 0 3.41294e-05 -1.21436e-20 -3.41294e-05
          0 0 0 0 0 0 0 0 0 0 0 0
          0 0 0 -2.10146e-05 2.10146e-05 -2.10146e-05 0 0 0 -5.66394e-21 3.41294e-05 -3.41294e-05
          0 0 0 2.10146e-05 2.10146e-05 -2.10146e-05 0 0 0 0 0 0
          0 0 0 0 0 0 0 0 0 0 0 0
          0 0 0 0 0 0 0 0 0 0 0 0
          0 0 0 0 0 0 0 0 0 0 0 0
          0 0 0 -3.41294e-05 -3.41294e-05 -1.96123e-20 0 0 0 1.74224e-20 -0.000119676 -1.17957e-19
          0 0 0 3.41294e-05 -3.41294e-05 -4.6855e-20 0 0 0 0 0 0
          0 0 0 -0.000119676 -1.85205e-21 -1.11629e-19 -8.48722e-22 6.10331e-22 -5.66915e-20 0.000119676 7.94437e-21 -1.20443e-19
          0 0 0 0 0 0 -3.41294e-05 3.41294e-05 -4.19299e-20 8.36169e-21 0.000119676 -6.20497e-20
          3.41294e-05 3.41294e-05 -5.26971e-20 0 0 0 0 0 0 0 0 0
          0 0 0 0 0 0 0 0 0 0 0 0
          0 0 0 0 0 0 -2.10146e-05 -2.10146e-05 2.10146e-05 0 0 0
          1.99652e-21 -3.41294e-05 3.41294e-05 0 0 0 2.10146e-05 -2.10146e-05 2.10146e-05 0 0 0
          0 0 0 0 0 0 -3.41294e-05 6.35975e-21 3.41294e-05 2.41711e-21 -9.2061e-21 0.000119676
          3.41294e-05 -1.06984e-21 3.41294e-05 0 0 0 0 0 0 -2.10146e-05 2.10146e-05 2.10146e-05
          1.59358e-21 3.41294e-05 3.41294e-05 2.10146e-05 2.10146e-05 2.10146e-05 0 0 0 0 0 0
          0 0 0 0 0 0 0 0 0 0 0 0
          0 0 0 0 0 0 0 0 0 0 0 0
          0 0 0 0 0 0 0 0 0 0 0 0
          0 0 0 0 0 0 0 0 0 0 0 0
          0 0 0 0 0 0 0 0 0 0 0 0
          0 0 0 0 0 0 0 0 0 0 0 0
          0 0 0 0 0 0 0 0 0 0 0 0
          0 0 0
        </DataArray>
        <DataArray type="Float32" Name="rho" NumberOfComponents="1" format="ascii">
          999.702 999.702 999.702 999.702 999.702 999.702 999.702 999.755 999.702 999.702 999.702 999.803
          999.702 999.702 999.702 999.755 999.702 999.702 999.702 999.702 999.702 999.702 999.702 999.803
          999.702 999.835 999.702 999.803 999.702 999.702 999.702 999.702 999.702 999.755 999.702 999.803
          999.702 999.755 999.702 999.702 999.702 999.702 999.702 999.702 999.702 999.702 999.702 999.702
          999.702 999.702 999.702 999.702 999.702 999.803 999.702 999.835 999.702 999.803 999.702 999.702
          999.702 999.835 1000.96 999.835 999.702 999.702 999.803 999.835 999.803 999.702 999.702 999.702
          999.702 999.702 999.702 999.702 999.702 999.702 999.755 999.702 999.803 999.702 999.755 999.702
          999.702 999.702 999.803 999.835 999.803 999.702 999.702 999.755 999.803 999.755 999.702 999.702
          999.702 999.702 999.702 999.702 999.702 999.702 999.702 999.702 999.702 999.702 999.702 999.702
          999.702 999.702 999.702 999.702 999.702 999.702 999.702 999.702 999.702 999.702 999.702 999.702
          999.702 999.702 999.702 999.702 999.702
        </DataArray>
        <DataArray type="Float32" Name="mu" NumberOfComponents="1" format="ascii">
          0.0013059 0.0013059 0.0013059 0.0013059 0.0013059 0.0013059 0.0013059 0.0013058 0.0013059 0.0013059 0.0013059 0.00130571
          0.0013059 0.0013059 0.0013059 0.0013058 0.0013059 0.0013059 0.0013059 0.0013059 0.0013059 0.0013059 0.0013059 0.00130571
          0.0013059 0.00130565 0.0013059 0.00130571 0.0013059 0.0013059 0.0013059 0.0013059 0.0013059 0.0013058 0.0013059 0.00130571
          0.0013059 0.0013058 0.0013059 0.0013059 0.0013059 0.0013059 0.0013059 0.0013059 0.0013059 0.0013059 0.0013059 0.0013059
          0.0013059 0.0013059 0.0013059 0.0013059 0.0013059 0.00130571 0.0013059 0.00130565 0.0013059 0.00130571 0.0013059 0.0013059
          0.0013059 0.00130565 0.00130355 0.00130565 0.0013059 0.0013059 0.00130571 0.00130565 0.00130571 0.0013059 0.0013059 0.0013059
          0.0013059 0.0013059 0.0013059 0.0013059 0.0013059 0.0013059 0.0013058 0.0013059 0.00130571 0.0013059 0.0013058 0.0013059
          0.0013059 0.0013059 0.00130571 0.00130565 0.00130571 0.0013059 0.0013059 0.0013058 0.00130571 0.0013058 0.0013059 0.0013059
          0.0013059 0.0013059 0.0013059 0.0013059 0.0013059 0.0013059 0.0013059 0.0013059 0.0013059 0.0013059 0.0013059 0.0013059
          0.0013059 0.0013059 0.0013059 0.0013059 0.0013059 0.0013059 0.0013059 0.0013059 0.0013059 0.0013059 0.0013059 0.0013059
          0.0013059 0.0013059 0.0013059 0.0013059 0.0013059
        </DataArray>
        <DataArray type="Float32" Name="porosity" NumberOfComponents="1" format="ascii">
          0.2 0.2 0.2 0.2 0.2 0.2 0.2 0.2 0.2 0.2 0.2 0.2
          0.2 0.2 0.2 0.2 0.2 0.2 0.2 0.2 0.2 0.2 0.2 0.2
          0.2 0.2 0.2 0.2 0.2 0.2 0.2 0.2 0.2 0.2 0.2 0.2
          0.2 0.2 0.2 0.2 0.2 0.2 0.2 0.2 0.2 0.2 0.2 0.2
          0.2 0.2 0.2 0.2 0.2 0.2 0.2 0.2 0.2 0.2 0.2 0.2
          0.2 0.2 0.2 0.2 0.2 0.2 0.2 0.2 0.2 0.2 0.2 0.2
          0.2 0.2 0.2 0.2 0.2 0.2 0.2 0.2 0.2 0.2 0.2 0.2
          0.2 0.2 0.2 0.2 0.2 0.2 0.2 0.2 0.2 0.2 0.2 0.2
          0.2 0.2 0.2 0.2 0.2 0.2 0.2 0.2 0.2 0.2 0.2 0.2
          0.2 0.2 0.2 0.2 0.2 0.2 0.2 0.2 0.2 0.2 0.2 0.2
          0.2 0.2 0.2 0.2 0.2
        </DataArray>
        <DataArray type="Float32" Name="Kx" NumberOfComponents="1" format="ascii">
          1e-12 1e-12 1e-12 1e-12 1e-12 1e-12 1e-12 1e-12 1e-12 1e-12 1e-12 1e-12
          1e-12 1e-12 1e-12 1e-12 1e-12 1e-12 1e-12 1e-12 1e-12 1e-12 1e-12 1e-12
          1e-12 1e-12 1e-12 1e-12 1e-12 1e-12 1e-12 1e-12 1e-12 1e-12 1e-12 1e-12
          1e-12 1e-12 1e-12 1e-12 1e-12 1e-12 1e-12 1e-12 1e-12 1e-12 1e-12 1e-12
          1e-12 1e-12 1e-12 1e-12 1e-12 1e-12 1e-12 1e-12 1e-12 1e-12 1e-12 1e-12
          1e-12 1e-12 1e-12 1e-12 1e-12 1e-12 1e-12 1e-12 1e-12 1e-12 1e-12 1e-12
          1e-12 1e-12 1e-12 1e-12 1e-12 1e-12 1e-12 1e-12 1e-12 1e-12 1e-12 1e-12
          1e-12 1e-12 1e-12 1e-12 1e-12 1e-12 1e-12 1e-12 1e-12 1e-12 1e-12 1e-12
          1e-12 1e-12 1e-12 1e-12 1e-12 1e-12 1e-12 1e-12 1e-12 1e-12 1e-12 1e-12
          1e-12 1e-12 1e-12 1e-12 1e-12 1e-12 1e-12 1e-12 1e-12 1e-12 1e-12 1e-12
          1e-12 1e-12 1e-12 1e-12 1e-12
        </DataArray>
      </PointData>
      <CellData Scalars="porosity" Vectors="total stresses X">
        <DataArray type="Float32" Name="porosity" NumberOfComponents="1" format="ascii">
          0.2 0.2 0.2 0.2 0.2 0.2 0.2 0.2 0.2 0.2 0.2 0.2
          0.2 0.2 0.2 0.2 0.2 0.2 0.2 0.2 0.2 0.2 0.2 0.2
          0.2 0.2 0.2 0.2 0.2 0.2 0.2 0.2 0.2 0.2 0.2 0.2
          0.2 0.2 0.2 0.2 0.2 0.2 0.2 0.2 0.2 0.2 0.2 0.2
          0.2 0.2 0.2 0.2 0.2 0.2 0.2 0.2 0.2 0.2 0.2 0.2
          0.2 0.2 0.2 0.2
        </DataArray>
        <DataArray type="Float32" Name="Kx" NumberOfComponents="1" format="ascii">
          1e-12 1e-12 1e-12 1e-12 1e-12 1e-12 1e-12 1e-12 1e-12 1e-12 1e-12 1e-12
          1e-12 1e-12 1e-12 1e-12 1e-12 1e-12 1e-12 1e-12 1e-12 1e-12 1e-12 1e-12
          1e-12 1e-12 1e-12 1e-12 1e-12 1e-12 1e-12 1e-12 1e-12 1e-12 1e-12 1e-12
          1e-12 1e-12 1e-12 1e-12 1e-12 1e-12 1e-12 1e-12 1e-12 1e-12 1e-12 1e-12
          1e-12 1e-12 1e-12 1e-12 1e-12 1e-12 1e-12 1e-12 1e-12 1e-12 1e-12 1e-12
          1e-12 1e-12 1e-12 1e-12
        </DataArray>
        <DataArray type="Float32" Name="effective porosity" NumberOfComponents="1" format="ascii">
          0.199995 0.199993 0.199993 0.199995 0.199993 0.199992 0.199992 0.199993 0.199993 0.199992 0.199992 0.199993
          0.199995 0.199993 0.199993 0.199995 0.199993 0.199992 0.199992 0.199993 0.199992 0.20005 0.20005 0.199992
          0.199992 0.20005 0.20005 0.199992 0.199993 0.199992 0.199992 0.199993 0.199993 0.199992 0.199992 0.199993
          0.199992 0.20005 0.20005 0.199992 0.199992 0.20005 0.20005 0.199992 0.199993 0.199992 0.199992 0.199993
          0.199995 0.199993 0.199993 0.199995 0.199993 0.199992 0.199992 0.199993 0.199993 0.199992 0.199992 0.199993
          0.199995 0.199993 0.199993 0.199995
        </DataArray>
        <DataArray type="Float32" Name="total stresses X" NumberOfComponents="3" format="ascii">
          -136145 -10507.3 -10507.3 -146044 -8532.35 -8532.35 -146044 8532.35 8532.35 -136145 10507.3 10507.3
          -184123 -8532.35 -27572 -191850 -6557.41 -38451.3 -191850 6557.41 38451.3 -184123 8532.35 27572
          -184123 8532.35 -27572 -191850 6557.41 -38451.3 -191850 -6557.41 38451.3 -184123 -8532.35 27572
          -136145 10507.3 -10507.3 -146044 8532.35 -8532.35 -146044 -8532.35 8532.35 -136145 -10507.3 10507.3
          -184123 -27572 -8532.35 -191850 -38451.3 -6557.41 -191850 38451.3 6557.41 -184123 27572 8532.35
          -323897 -38451.3 -38451.3 -419718 -49330.7 -49330.7 -419718 49330.7 49330.7 -323897 38451.3 38451.3
          -323897 38451.3 -38451.3 -419718 49330.7 -49330.7 -419718 -49330.7 49330.7 -323897 -38451.3 38451.3
          -184123 27572 -8532.35 -191850 38451.3 -6557.41 -191850 -38451.3 6557.41 -184123 -27572 8532.35
          -184123 -27572 8532.35 -191850 -38451.3 6557.41 -191850 38451.3 -6557.41 -184123 27572 -8532.35
          -323897 -38451.3 38451.3 -419718 -49330.7 49330.7 -419718 49330.7 -49330.7 -323897 38451.3 -38451.3
          -323897 38451.3 38451.3 -419718 49330.7 49330.7 -419718 -49330.7 -49330.7 -323897 -38451.3 -38451.3
          -184123 27572 8532.35 -191850 38451.3 6557.41 -191850 -38451.3 -6557.41 -184123 -27572 -8532.35
          -136145 -10507.3 10507.3 -146044 -8532.35 8532.35 -146044 8532.35 -8532.35 -136145 10507.3 -10507.3
          -184123 -8532.35 27572 -191850 -6557.41 38451.3 -191850 6557.41 -38451.3 -184123 8532.35 -27572
          -184123 8532.35 27572 -191850 6557.41 38451.3 -191850 -6557.41 -38451.3 -184123 -8532.35 -27572
          -136145 10507.3 10507.3 -146044 8532.35 8532.35 -146044 -8532.35 -8532.35 -136145 -10507.3 -10507.3
        </DataArray>
        <DataArray type="Float32" Name="total stresses Y" NumberOfComponents="3" format="ascii">
          -10507.3 -136145 -10507.3 -8532.35 -184123 -27572 8532.35 -184123 -27572 10507.3 -136145 -10507.3
          -8532.35 -146044 -8532.35 -6557.41 -191850 -38451.3 6557.41 -191850 -38451.3 8532.35 -146044 -8532.35
          8532.35 -146044 8532.35 6557.41 -191850 38451.3 -6557.41 -191850 38451.3 -8532.35 -146044 8532.35
          10507.3 -136145 10507.3 8532.35 -184123 27572 -8532.35 -184123 27572 -10507.3 -136145 10507.3
          -27572 -184123 -8532.35 -38451.3 -323897 -38451.3 38451.3 -323897 -38451.3 27572 -184123 -8532.35
          -38451.3 -191850 -6557.41 -49330.7 -419718 -49330.7 49330.7 -419718 -49330.7 38451.3 -191850 -6557.41
          38451.3 -191850 6557.41 49330.7 -419718 49330.7 -49330.7 -419718 49330.7 -38451.3 -191850 6557.41
          27572 -184123 8532.35 38451.3 -323897 38451.3 -38451.3 -323897 38451.3 -27572 -184123 8532.35
          -27572 -184123 8532.35 -38451.3 -323897 38451.3 38451.3 -323897 38451.3 27572 -184123 8532.35
          -38451.3 -191850 6557.41 -49330.7 -419718 49330.7 49330.7 -419718 49330.7 38451.3 -191850 6557.41
          38451.3 -191850 -6557.41 49330.7 -419718 -49330.7 -49330.7 -419718 -49330.7 -38451.3 -191850 -6557.41
          27572 -184123 -8532.35 38451.3 -323897 -38451.3 -38451.3 -323897 -38451.3 -27572 -184123 -8532.35
          -10507.3 -136145 10507.3 -8532.35 -184123 27572 8532.35 -184123 27572 10507.3 -136145 10507.3
          -8532.35 -146044 8532.35 -6557.41 -191850 38451.3 6557.41 -191850 38451.3 8532.35 -146044 8532.35
          8532.35 -146044 -8532.35 6557.41 -191850 -38451.3 -6557.41 -191850 -38451.3 -8532.35 -146044 -8532.35
          10507.3 -136145 -10507.3 8532.35 -184123 -27572 -8532.35 -184123 -27572 -10507.3 -136145 -10507.3
        </DataArray>
        <DataArray type="Float32" Name="total stresses Z" NumberOfComponents="3" format="ascii">
          -10507.3 -10507.3 -136145 -8532.35 -27572 -184123 8532.35 -27572 -184123 10507.3 -10507.3 -136145
          -27572 -8532.35 -184123 -38451.3 -38451.3 -323897 38451.3 -38451.3 -323897 27572 -8532.35 -184123
          -27572 8532.35 -184123 -38451.3 38451.3 -323897 38451.3 38451.3 -323897 27572 8532.35 -184123
          -10507.3 10507.3 -136145 -8532.35 27572 -184123 8532.35 27572 -184123 10507.3 10507.3 -136145
          -8532.35 -8532.35 -146044 -6557.41 -38451.3 -191850 6557.41 -38451.3 -191850 8532.35 -8532.35 -146044
          -38451.3 -6557.41 -191850 -49330.7 -49330.7 -419718 49330.7 -49330.7 -419718 38451.3 -6557.41 -191850
          -38451.3 6557.41 -191850 -49330.7 49330.7 -419718 49330.7 49330.7 -419718 38451.3 6557.41 -191850
          -8532.35 8532.35 -146044 -6557.41 38451.3 -191850 6557.41 38451.3 -191850 8532.35 8532.35 -146044
          8532.35 8532.35 -146044 6557.41 38451.3 -191850 -6557.41 38451.3 -191850 -8532.35 8532.35 -146044
          38451.3 6557.41 -191850 49330.7 49330.7 -419718 -49330.7 49330.7 -419718 -38451.3 6557.41 -191850
          38451.3 -6557.41 -191850 49330.7 -49330.7 -419718 -49330.7 -49330.7 -419718 -38451.3 -6557.41 -191850
          8532.35 -8532.35 -146044 6557.41 -38451.3 -191850 -6557.41 -38451.3 -191850 -8532.35 -8532.35 -146044
          10507.3 10507.3 -136145 8532.35 27572 -184123 -8532.35 27572 -184123 -10507.3 10507.3 -136145
          27572 8532.35 -184123 38451.3 38451.3 -323897 -38451.3 38451.3 -323897 -27572 8532.35 -184123
          27572 -8532.35 -184123 38451.3 -38451.3 -323897 -38451.3 -38451.3 -323897 -27572 -8532.35 -184123
          10507.3 -10507.3 -136145 8532.35 -27572 -184123 -8532.35 -27572 -184123 -10507.3 -10507.3 -136145
        </DataArray>
        <DataArray type="Float32" Name="effective stress changes X" NumberOfComponents="3" format="ascii">
          -21014.6 -10507.3 -10507.3 -4371.6 -8532.35 -8532.35 -4371.6 8532.35 8532.35 -21014.6 10507.3 10507.3
          -42450.9 -8532.35 -27572 11128.5 -6557.41 -38451.3 11128.5 6557.41 38451.3 -42450.9 8532.35 27572
          -42450.9 8532.35 -27572 11128.5 6557.41 -38451.3 11128.5 -6557.41 38451.3 -42450.9 -8532.35 27572
          -21014.6 10507.3 -10507.3 -4371.6 8532.35 -8532.35 -4371.6 -8532.35 8532.35 -21014.6 -10507.3 10507.3
          -42450.9 -27572 -8532.35 11128.5 -38451.3 -6557.41 11128.5 38451.3 6557.41 -42450.9 27572 8532.35
          -120918 -38451.3 -38451.3 208949 -49330.7 -49330.7 208949 49330.7 49330.7 -120918 38451.3 38451.3
          -120918 38451.3 -38451.3 208949 49330.7 -49330.7 208949 -49330.7 49330.7 -120918 -38451.3 38451.3
          -42450.9 27572 -8532.35 11128.5 38451.3 -6557.41 11128.5 -38451.3 6557.41 -42450.9 -27572 8532.35
          -42450.9 -27572 8532.35 11128.5 -38451.3 6557.41 11128.5 38451.3 -6557.41 -42450.9 27572 -8532.35
          -120918 -38451.3 38451.3 208949 -49330.7 49330.7 208949 49330.7 -49330.7 -120918 38451.3 -38451.3
          -120918 38451.3 38451.3 208949 49330.7 49330.7 208949 -49330.7 -49330.7 -120918 -38451.3 -38451.3
          -42450.9 27572 8532.35 11128.5 38451.3 6557.41 11128.5 -38451.3 -6557.41 -42450.9 -27572 -8532.35
          -21014.6 -10507.3 10507.3 -4371.6 -8532.35 8532.35 -4371.6 8532.35 -8532.35 -21014.6 10507.3 -10507.3
          -42450.9 -8532.35 27572 11128.5 -6557.41 38451.3 11128.5 6557.41 -38451.3 -42450.9 8532.35 -27572
          -42450.9 8532.35 27572 11128.5 6557.41 38451.3 11128.5 -6557.41 -38451.3 -42450.9 -8532.35 -27572
          -21014.6 10507.3 10507.3 -4371.6 8532.35 8532.35 -4371.6 -8532.35 -8532.35 -21014.6 -10507.3 -10507.3
        </DataArray>
        <DataArray type="Float32" Name="effective stress changes Y" NumberOfComponents="3" format="ascii">
          -10507.3 -21014.6 -10507.3 -8532.35 -42450.9 -27572 8532.35 -42450.9 -27572 10507.3 -21014.6 -10507.3
          -8532.35 -4371.6 -8532.35 -6557.41 11128.5 -38451.3 6557.41 11128.5 -38451.3 8532.35 -4371.6 -8532.35
          8532.35 -4371.6 8532.35 6557.41 11128.5 38451.3 -6557.41 11128.5 38451.3 -8532.35 -4371.6 8532.35
          10507.3 -21014.6 10507.3 8532.35 -42450.9 27572 -8532.35 -42450.9 27572 -10507.3 -21014.6 10507.3
          -27572 -42450.9 -8532.35 -38451.3 -120918 -38451.3 38451.3 -120918 -38451.3 27572 -42450.9 -8532.35
          -38451.3 11128.5 -6557.41 -49330.7 208949 -49330.7 49330.7 208949 -49330.7 38451.3 11128.5 -6557.41
          38451.3 11128.5 6557.41 49330.7 208949 49330.7 -49330.7 208949 49330.7 -38451.3 11128.5 6557.41
          27572 -42450.9 8532.35 38451.3 -120918 38451.3 -38451.3 -120918 38451.3 -27572 -42450.9 8532.35
          -27572 -42450.9 8532.35 -38451.3 -120918 38451.3 38451.3 -120918 38451.3 27572 -42450.9 8532.35
          -38451.3 11128.5 6557.41 -49330.7 208949 49330.7 49330.7 208949 49330.7 38451.3 11128.5 6557.41
          38451.3 11128.5 -6557.41 49330.7 208949 -49330.7 -49330.7 208949 -49330.7 -38451.3 11128.5 -6557.41
          27572 -42450.9 -8532.35 38451.3 -120918 -38451.3 -38451.3 -120918 -38451.3 -27572 -42450.9 -8532.35
          -10507.3 -21014.6 10507.3 -8532.35 -42450.9 27572 8532.35 -42450.9 27572 10507.3 -21014.6 10507.3
          -8532.35 -4371.6 8532.35 -6557.41 11128.5 38451.3 6557.41 11128.5 38451.3 8532.35 -4371.6 8532.35
          8532.35 -4371.6 -8532.35 6557.41 11128.5 -38451.3 -6557.41 11128.5 -38451.3 -8532.35 -4371.6 -8532.35
          10507.3 -21014.6 -10507.3 8532.35 -42450.9 -27572 -8532.35 -42450.9 -27572 -10507.3 -21014.6 -10507.3
        </DataArray>
        <DataArray type="Float32" Name="effective stress changes Z" NumberOfComponents="3" format="ascii">
          -10507.3 -10507.3 -21014.6 -8532.35 -27572 -42450.9 8532.35 -27572 -42450.9 10507.3 -10507.3 -21014.6
          -27572 -8532.35 -42450.9 -38451.3 -38451.3 -120918 38451.3 -38451.3 -120918 27572 -8532.35 -42450.9
          -27572 8532.35 -42450.9 -38451.3 38451.3 -120918 38451.3 38451.3 -120918 27572 8532.35 -42450.9
          -10507.3 10507.3 -21014.6 -8532.35 27572 -42450.9 8532.35 27572 -42450.9 10507.3 10507.3 -21014.6
          -8532.35 -8532.35 -4371.6 -6557.41 -38451.3 11128.5 6557.41 -38451.3 11128.5 8532.35 -8532.35 -4371.6
          -38451.3 -6557.41 11128.5 -49330.7 -49330.7 208949 49330.7 -49330.7 208949 38451.3 -6557.41 11128.5
          -38451.3 6557.41 11128.5 -49330.7 49330.7 208949 49330.7 49330.7 208949 38451.3 6557.41 11128.5
          -8532.35 8532.35 -4371.6 -6557.41 38451.3 11128.5 6557.41 38451.3 11128.5 8532.35 8532.35 -4371.6
          8532.35 8532.35 -4371.6 6557.41 38451.3 11128.5 -6557.41 38451.3 11128.5 -8532.35 8532.35 -4371.6
          38451.3 6557.41 11128.5 49330.7 49330.7 208949 -49330.7 49330.7 208949 -38451.3 6557.41 11128.5
          38451.3 -6557.41 11128.5 49330.7 -49330.7 208949 -49330.7 -49330.7 208949 -38451.3 -6557.41 11128.5
          8532.35 -8532.35 -4371.6 6557.41 -38451.3 11128.5 -6557.41 -38451.3 11128.5 -8532.35 -8532.35 -4371.6
          10507.3 10507.3 -21014.6 8532.35 27572 -42450.9 -8532.35 27572 -42450.9 -10507.3 10507.3 -21014.6
          27572 8532.35 -42450.9 38451.3 38451.3 -120918 -38451.3 38451.3 -120918 -27572 8532.35 -42450.9
          27572 -8532.35 -42450.9 38451.3 -38451.3 -120918 -38451.3 -38451.3 -120918 -27572 -8532.35 -42450.9
          10507.3 -10507.3 -21014.6 8532.35 -27572 -42450.9 -8532.35 -27572 -42450.9 -10507.3 -10507.3 -21014.6
        </DataArray>
        <DataArray type="Float32" Name="principal stress 1" NumberOfComponents="1" format="ascii">
          -125638 -144053 -144053 -125638 -143941 -178123 -178123 -143941 -143941 -178123 -178123 -143941
          -125638 -144053 -144053 -125638 -143896 -178123 -178123 -143896 -178125 -370387 -370387 -178125
          -178125 -370387 -370387 -178125 -143896 -178123 -178123 -143896 -143896 -178123 -178123 -143896
          -178125 -370387 -370387 -178125 -178125 -370387 -370387 -178125 -143896 -178123 -178123 -143896
          -125638 -144053 -144053 -125638 -143941 -178123 -178123 -143941 -143941 -178123 -178123 -143941
          -125638 -144053 -144053 -125638
        </DataArray>
        <DataArray type="Float32" Name="principal stress 2" NumberOfComponents="1" format="ascii">
          -125638 -156419 -156419 -125638 -156552 -185293 -185293 -156552 -156552 -185293 -185293 -156552
          -125638 -156419 -156419 -125638 -156551 -185293 -185293 -156551 -185295 -370387 -370387 -185295
          -185295 -370387 -370387 -185295 -156551 -185293 -185293 -156551 -156551 -185293 -185293 -156551
          -185295 -370387 -370387 -185295 -185295 -370387 -370387 -185295 -156551 -185293 -185293 -156551
          -125638 -156419 -156419 -125638 -156552 -185293 -185293 -156552 -156552 -185293 -185293 -156552
          -125638 -156419 -156419 -125638
        </DataArray>
        <DataArray type="Float32" Name="principal stress 3" NumberOfComponents="1" format="ascii">
          -157160 -213818 -213818 -157160 -213796 -344182 -344182 -213796 -213796 -344182 -344182 -213796
          -157160 -213818 -213818 -157160 -213843 -344182 -344182 -213843 -344176 -518379 -518379 -344176
          -344176 -518379 -518379 -344176 -213843 -344182 -344182 -213843 -213843 -344182 -344182 -213843
          -344176 -518379 -518379 -344176 -344176 -518379 -518379 -344176 -213843 -344182 -344182 -213843
          -157160 -213818 -213818 -157160 -213796 -344182 -344182 -213796 -213796 -344182 -344182 -213796
          -157160 -213818 -213818 -157160
        </DataArray>
        <DataArray type="Float32" Name="P" NumberOfComponents="1" format="ascii">
          115131 141672 141672 115131 141672 202978 202978 141672 141672 202978 202978 141672
          115131 141672 141672 115131 141672 202978 202978 141672 202978 628668 628668 202978
          202978 628668 628668 202978 141672 202978 202978 141672 141672 202978 202978 141672
          202978 628668 628668 202978 202978 628668 628668 202978 141672 202978 202978 141672
          115131 141672 141672 115131 141672 202978 202978 141672 141672 202978 202978 141672
          115131 141672 141672 115131
        </DataArray>
        <DataArray type="Float32" Name="rank" NumberOfComponents="1" format="ascii">
          0 0 0 0 0 0 0 0 0 0 0 0
          0 0 0 0 0 0 0 0 0 0 0 0
          0 0 0 0 0 0 0 0 0 0 0 0
          0 0 0 0 0 0 0 0 0 0 0 0
          0 0 0 0 0 0 0 0 0 0 0 0
          0 0 0 0
        </DataArray>
      </CellData>
      <Points>
        <DataArray type="Float32" Name="Coordinates" NumberOfComponents="3" format="ascii">
          0 0 0 2.5 0 0 0 2.5 0 2.5 2.5 0
          0 0 2.5 2.5 0 2.5 0 2.5 2.5 2.5 2.5 2.5
          5 0 0 5 2.5 0 5 0 2.5 5 2.5 2.5
          7.5 0 0 7.5 2.5 0 7.5 0 2.5 7.5 2.5 2.5
          10 0 0 10 2.5 0 10 0 2.5 10 2.5 2.5
          0 5 0 2.5 5 0 0 5 2.5 2.5 5 2.5
          5 5 0 5 5 2.5 7.5 5 0 7.5 5 2.5
          10 5 0 10 5 2.5 0 7.5 0 2.5 7.5 0
          0 7.5 2.5 2.5 7.5 2.5 5 7.5 0 5 7.5 2.5
          7.5 7.5 0 7.5 7.5 2.5 10 7.5 0 10 7.5 2.5
          0 10 0 2.5 10 0 0 10 2.5 2.5 10 2.5
          5 10 0 5 10 2.5 7.5 10 0 7.5 10 2.5
          10 10 0 10 10 2.5 0 0 5 2.5 0 5
          0 2.5 5 2.5 2.5 5 5 0 5 5 2.5 5
          7.5 0 5 7.5 2.5 5 10 0 5 10 2.5 5
          0 5 5 2.5 5 5 5 5 5 7.5 5 5
          10 5 5 0 7.5 5 2.5 7.5 5 5 7.5 5
          7.5 7.5 5 10 7.5 5 0 10 5 2.5 10 5
          5 10 5 7.5 10 5 10 10 5 0 0 7.5
          2.5 0 7.5 0 2.5 7.5 2.5 2.5 7.5 5 0 7.5
          5 2.5 7.5 7.5 0 7.5 7.5 2.5 7.5 10 0 7.5
          10 2.5 7.5 0 5 7.5 2.5 5 7.5 5 5 7.5
          7.5 5 7.5 10 5 7.5 0 7.5 7.5 2.5 7.5 7.5
          5 7.5 7.5 7.5 7.5 7.5 10 7.5 7.5 0 10 7.5
          2.5 10 7.5 5 10 7.5 7.5 10 7.5 10 10 7.5
          0 0 10 2.5 0 10 0 2.5 10 2.5 2.5 10
          5 0 10 5 2.5 10 7.5 0 10 7.5 2.5 10
          10 0 10 10 2.5 10 0 5 10 2.5 5 10
          5 5 10 7.5 5 10 10 5 10 0 7.5 10
          2.5 7.5 10 5 7.5 10 7.5 7.5 10 10 7.5 10
          0 10 10 2.5 10 10 5 10 10 7.5 10 10
          10 10 10
        </DataArray>
      </Points>
      <Cells>
        <DataArray type="Int32" Name="connectivity" NumberOfComponents="1" format="ascii">
          0 1 3 2 4 5 7 6 1 8 9 3
          5 10 11 7 8 12 13 9 10 14 15 11
          12 16 17 13 14 18 19 15 2 3 21 20
          6 7 23 22 3 9 24 21 7 11 25 23
          9 13 26 24 11 15 27 25 13 17 28 26
          15 19 29 27 20 21 31 30 22 23 33 32
          21 24 34 31 23 25 35 33 24 26 36 34
          25 27 37 35 26 28 38 36 27 29 39 37
          30 31 41 40 32 33 43 42 31 34 44 41
          33 35 45 43 34 36 46 44 35 37 47 45
          36 38 48 46 37 39 49 47 4 5 7 6
          50 51 53 52 5 10 11 7 51 54 55 53
          10 14 15 11 54 56 57 55 14 18 19 15
          56 58 59 57 6 7 23 22 52 53 61 60
          7 11 25 23 53 55 62 61 11 15 27 25
          55 57 63 62 15 19 29 27 57 59 64 63
          22 23 33 32 60 61 66 65 23 25 35 33
          61 62 67 66 25 27 37 35 62 63 68 67
          27 29 39 37 63 64 69 68 32 33 43 42
          65 66 71 70 33 35 45 43 66 67 72 71
          35 37 47 45 67 68 73 72 37 39 49 47
          68 69 74 73 50 51 53 52 75 76 78 77
          51 54 55 53 76 79 80 78 54 56 57 55
          79 81 82 80 56 58 59 57 81 83 84 82
          52 53 61 60 77 78 86 85 53 55 62 61
          78 80 87 86 55 57 63 62 80 82 88 87
          57 59 64 63 82 84 89 88 60 61 66 65
          85 86 91 90 61 62 67 66 86 87 92 91
          62 63 68 67 87 88 93 92 63 64 69 68
          88 89 94 93 65 66 71 70 90 91 96 95
          66 67 72 71 91 92 97 96 67 68 73 72
          92 93 98 97 68 69 74 73 93 94 99 98
          75 76 78 77 100 101 103 102 76 79 80 78
          101 104 105 103 79 81 82 80 104 106 107 105
          81 83 84 82 106 108 109 107 77 78 86 85
          102 103 111 110 78 80 87 86 103 105 112 111
          80 82 88 87 105 107 113 112 82 84 89 88
          107 109 114 113 85 86 91 90 110 111 116 115
          86 87 92 91 111 112 117 116 87 88 93 92
          112 113 118 117 88 89 94 93 113 114 119 118
          90 91 96 95 115 116 121 120 91 92 97 96
          116 117 122 121 92 93 98 97 117 118 123 122
          93 94 99 98 118 119 124 123
        </DataArray>
        <DataArray type="Int32" Name="offsets" NumberOfComponents="1" format="ascii">
          8 16 24 32 40 48 56 64 72 80 88 96
          104 112 120 128 136 144 152 160 168 176 184 192
          200 208 216 224 232 240 248 256 264 272 280 288
          296 304 312 320 328 336 344 352 360 368 376 384
          392 400 408 416 424 432 440 448 456 464 472 480
          488 496 504 512
        </DataArray>
        <DataArray type="UInt8" Name="types" NumberOfComponents="1" format="ascii">
          12 12 12 12 12 12 12 12 12 12 12 12
          12 12 12 12 12 12 12 12 12 12 12 12
          12 12 12 12 12 12 12 12 12 12 12 12
          12 12 12 12 12 12 12 12 12 12 12 12
          12 12 12 12 12 12 12 12 12 12 12 12
          12 12 12 12
        </DataArray>
      </Cells>
    </Piece>
  </UnstructuredGrid>
</VTKFile>
