<?xml version="1.0"?>
<VTKFile type="UnstructuredGrid" version="0.1" byte_order="LittleEndian">
  <UnstructuredGrid>
    <Piece NumberOfCells="64" NumberOfPoints="125">
      <PointData Scalars="T" Vectors="u">
        <DataArray type="Float32" Name="T" NumberOfComponents="1" format="ascii">
          343.15 343.15 343.15 343.15 335.65 335.65 335.65 335.65 343.15 343.15 335.65 335.65
          343.15 343.15 335.65 335.65 343.15 343.15 335.65 335.65 343.15 343.15 335.65 335.65
          343.15 335.65 343.15 335.65 343.15 335.65 343.15 343.15 335.65 335.65 343.15 335.65
          343.15 335.65 343.15 335.65 343.15 343.15 335.65 335.65 343.15 335.65 343.15 335.65
          343.15 335.65 328.15 328.15 328.15 328.15 328.15 328.15 328.15 328.15 328.15 328.15
          328.15 328.15 328.15 328.15 328.15 328.15 328.15 328.15 328.15 328.15 328.15 328.15
          328.15 328.15 328.15 320.65 320.65 320.65 320.65 320.65 320.65 320.65 320.65 320.65
          320.65 320.65 320.65 320.65 320.65 320.65 320.65 320.65 320.65 320.65 320.65 320.65
          320.65 320.65 320.65 320.65 313.15 313.15 313.15 313.15 313.15 313.15 313.15 313.15
          313.15 313.15 313.15 313.15 313.15 313.15 313.15 313.15 313.15 313.15 313.15 313.15
          313.15 313.15 313.15 313.15 313.15
        </DataArray>
        <DataArray type="Float32" Name="pW" NumberOfComponents="1" format="ascii">
          2.08789e+07 2.08789e+07 2.08789e+07 2.11188e+07 1.82817e+07 1.82817e+07 1.82817e+07 1.86687e+07 2.08789e+07 2.12054e+07 1.82817e+07 1.90162e+07
          2.08789e+07 2.11188e+07 1.82817e+07 1.86687e+07 2.08789e+07 2.08789e+07 1.82817e+07 1.82817e+07 2.08789e+07 2.12054e+07 1.82817e+07 1.90162e+07
          2.13659e+07 1.91503e+07 2.12054e+07 1.90162e+07 2.08789e+07 1.82817e+07 2.08789e+07 2.11188e+07 1.82817e+07 1.86687e+07 2.12054e+07 1.90162e+07
          2.11188e+07 1.86687e+07 2.08789e+07 1.82817e+07 2.08789e+07 2.08789e+07 1.82817e+07 1.82817e+07 2.08789e+07 1.82817e+07 2.08789e+07 1.82817e+07
          2.08789e+07 1.82817e+07 1.56845e+07 1.56845e+07 1.56845e+07 1.63659e+07 1.56845e+07 1.65145e+07 1.56845e+07 1.63659e+07 1.56845e+07 1.56845e+07
          1.56845e+07 1.65145e+07 2.44988e+07 1.65145e+07 1.56845e+07 1.56845e+07 1.63659e+07 1.65145e+07 1.63659e+07 1.56845e+07 1.56845e+07 1.56845e+07
          1.56845e+07 1.56845e+07 1.56845e+07 1.30873e+07 1.30873e+07 1.30873e+07 1.34366e+07 1.30873e+07 1.37793e+07 1.30873e+07 1.34366e+07 1.30873e+07
          1.30873e+07 1.30873e+07 1.37793e+07 1.3974e+07 1.37793e+07 1.30873e+07 1.30873e+07 1.34366e+07 1.37793e+07 1.34366e+07 1.30873e+07 1.30873e+07
          1.30873e+07 1.30873e+07 1.30873e+07 1.30873e+07 1.04901e+07 1.04901e+07 1.04901e+07 1.04901e+07 1.04901e+07 1.04901e+07 1.04901e+07 1.04901e+07
          1.04901e+07 1.04901e+07 1.04901e+07 1.04901e+07 1.04901e+07 1.04901e+07 1.04901e+07 1.04901e+07 1.04901e+07 1.04901e+07 1.04901e+07 1.04901e+07
          1.04901e+07 1.04901e+07 1.04901e+07 1.04901e+07 1.04901e+07
        </DataArray>
        <DataArray type="Float32" Name="pN" NumberOfComponents="1" format="ascii">
          2.08964e+07 2.08964e+07 2.08964e+07 2.11364e+07 1.82993e+07 1.82993e+07 1.82993e+07 1.86863e+07 2.08964e+07 2.1223e+07 1.82993e+07 1.90338e+07
          2.08964e+07 2.11364e+07 1.82993e+07 1.86863e+07 2.08964e+07 2.08964e+07 1.82993e+07 1.82993e+07 2.08964e+07 2.1223e+07 1.82993e+07 1.90338e+07
          2.13835e+07 1.91678e+07 2.1223e+07 1.90338e+07 2.08964e+07 1.82993e+07 2.08964e+07 2.11364e+07 1.82993e+07 1.86863e+07 2.1223e+07 1.90338e+07
          2.11364e+07 1.86863e+07 2.08964e+07 1.82993e+07 2.08964e+07 2.08964e+07 1.82993e+07 1.82993e+07 2.08964e+07 1.82993e+07 2.08964e+07 1.82993e+07
          2.08964e+07 1.82993e+07 1.57021e+07 1.57021e+07 1.57021e+07 1.63835e+07 1.57021e+07 1.65321e+07 1.57021e+07 1.63835e+07 1.57021e+07 1.57021e+07
          1.57021e+07 1.65321e+07 2.45192e+07 1.65321e+07 1.57021e+07 1.57021e+07 1.63835e+07 1.65321e+07 1.63835e+07 1.57021e+07 1.57021e+07 1.57021e+07
          1.57021e+07 1.57021e+07 1.57021e+07 1.31049e+07 1.31049e+07 1.31049e+07 1.34541e+07 1.31049e+07 1.37969e+07 1.31049e+07 1.34541e+07 1.31049e+07
          1.31049e+07 1.31049e+07 1.37969e+07 1.39916e+07 1.37969e+07 1.31049e+07 1.31049e+07 1.34541e+07 1.37969e+07 1.34541e+07 1.31049e+07 1.31049e+07
          1.31049e+07 1.31049e+07 1.31049e+07 1.31049e+07 1.05077e+07 1.05077e+07 1.05077e+07 1.05077e+07 1.05077e+07 1.05077e+07 1.05077e+07 1.05077e+07
          1.05077e+07 1.05077e+07 1.05077e+07 1.05077e+07 1.05077e+07 1.05077e+07 1.05077e+07 1.05077e+07 1.05077e+07 1.05077e+07 1.05077e+07 1.05077e+07
          1.05077e+07 1.05077e+07 1.05077e+07 1.05077e+07 1.05077e+07
        </DataArray>
        <DataArray type="Float32" Name="pC" NumberOfComponents="1" format="ascii">
          17569.9 17569.9 17569.9 17569.9 17569.9 17569.9 17569.9 17569.9 17569.9 17569.9 17569.9 17569.9
          17569.9 17569.9 17569.9 17569.9 17569.9 17569.9 17569.9 17569.9 17569.9 17569.9 17569.9 17569.9
          17569.9 17569.8 17569.9 17569.9 17569.9 17569.9 17569.9 17569.9 17569.9 17569.9 17569.9 17569.9
          17569.9 17569.9 17569.9 17569.9 17569.9 17569.9 17569.9 17569.9 17569.9 17569.9 17569.9 17569.9
          17569.9 17569.9 17569.9 17569.9 17569.9 17569.9 17569.9 17569.9 17569.9 17569.9 17569.9 17569.9
          17569.9 17569.9 20468.6 17569.9 17569.9 17569.9 17569.9 17569.9 17569.9 17569.9 17569.9 17569.9
          17569.9 17569.9 17569.9 17569.9 17569.9 17569.9 17569.9 17569.9 17569.9 17569.9 17569.9 17569.9
          17569.9 17569.9 17569.9 17570.1 17569.9 17569.9 17569.9 17569.9 17569.9 17569.9 17569.9 17569.9
          17569.9 17569.9 17569.9 17569.9 17569.9 17569.9 17569.9 17569.9 17569.9 17569.9 17569.9 17569.9
          17569.9 17569.9 17569.9 17569.9 17569.9 17569.9 17569.9 17569.9 17569.9 17569.9 17569.9 17569.9
          17569.9 17569.9 17569.9 17569.9 17569.9
        </DataArray>
        <DataArray type="Float32" Name="SW" NumberOfComponents="1" format="ascii">
          1 1 1 1 1 1 1 1 1 1 1 1
          1 1 1 1 1 1 1 1 1 1 1 1
          1 1 1 1 1 1 1 1 1 1 1 1
          1 1 1 1 1 1 1 1 1 1 1 1
          1 1 1 1 1 1 1 0.999999 1 1 1 1
          1 0.999999 0.938081 0.999999 1 1 1 0.999999 1 1 1 1
          1 1 1 1 1 1 1 1 1 1 1 1
          1 1 1 0.999994 1 1 1 1 1 1 1 1
          1 1 1 1 1 1 1 1 1 1 1 1
          1 1 1 1 1 1 1 1 1 1 1 1
          1 1 1 1 1
        </DataArray>
        <DataArray type="Float32" Name="SN" NumberOfComponents="1" format="ascii">
          0 0 0 0 0 0 0 -2.79107e-16 0 0 0 -3.03227e-11
          0 0 0 -2.79107e-16 0 0 0 0 0 0 0 -3.03227e-11
          0 -1.9951e-06 0 -3.03227e-11 0 0 0 0 0 -2.79107e-16 0 -3.03227e-11
          0 -2.79107e-16 0 0 0 0 0 0 0 0 0 0
          0 0 0 0 0 1.26192e-11 0 1.16498e-06 0 1.26192e-11 0 0
          0 1.16498e-06 0.0619192 1.16498e-06 0 0 1.26192e-11 1.16498e-06 1.26192e-11 0 0 0
          0 0 0 0 0 0 1.73792e-15 0 1.02144e-10 0 1.73792e-15 0
          0 0 1.02144e-10 5.95419e-06 1.02144e-10 0 0 1.73792e-15 1.02144e-10 1.73792e-15 0 0
          0 0 0 0 0 0 0 0 0 0 0 0
          0 0 0 0 0 0 0 0 0 0 0 0
          0 0 0 0 0
        </DataArray>
        <DataArray type="Float32" Name="rhoW" NumberOfComponents="1" format="ascii">
          1056.55 1056.55 1056.55 1056.63 1059.66 1059.66 1059.66 1059.81 1056.55 1056.67 1059.66 1059.94
          1056.55 1056.63 1059.66 1059.81 1056.55 1056.55 1059.66 1059.66 1056.55 1056.67 1059.66 1059.94
          1056.72 1059.99 1056.67 1059.94 1056.55 1059.66 1056.55 1056.63 1059.66 1059.81 1056.67 1059.94
          1056.63 1059.81 1056.55 1059.66 1056.55 1056.55 1059.66 1059.66 1056.55 1059.66 1056.55 1059.66
          1056.55 1059.66 1062.49 1062.49 1062.49 1062.75 1062.49 1062.8 1062.49 1062.75 1062.49 1062.49
          1062.49 1062.8 1065.82 1062.8 1062.49 1062.49 1062.75 1062.8 1062.75 1062.49 1062.49 1062.49
          1062.49 1062.49 1062.49 1064.99 1064.99 1064.99 1065.12 1064.99 1065.26 1064.99 1065.12 1064.99
          1064.99 1064.99 1065.26 1065.33 1065.26 1064.99 1064.99 1065.12 1065.26 1065.12 1064.99 1064.99
          1064.99 1064.99 1064.99 1064.99 1067.12 1067.12 1067.12 1067.12 1067.12 1067.12 1067.12 1067.12
          1067.12 1067.12 1067.12 1067.12 1067.12 1067.12 1067.12 1067.12 1067.12 1067.12 1067.12 1067.12
          1067.12 1067.12 1067.12 1067.12 1067.12
        </DataArray>
        <DataArray type="Float32" Name="rhoN" NumberOfComponents="1" format="ascii">
          695.741 695.741 695.741 699.765 675.345 675.345 675.345 683.412 695.741 701.181 675.345 690.278
          695.741 699.765 675.345 683.412 695.741 695.741 675.345 675.345 695.741 701.181 675.345 690.278
          703.787 692.844 701.181 690.278 695.741 675.345 695.741 699.765 675.345 683.412 701.181 690.278
          699.765 683.412 695.741 675.345 695.741 695.741 675.345 675.345 695.741 675.345 695.741 675.345
          695.741 675.345 673.462 673.462 673.462 690.273 673.462 693.671 673.462 690.273 673.462 673.462
          673.462 693.671 806.172 693.671 673.462 673.462 690.273 693.671 690.273 673.462 673.462 673.462
          673.462 673.462 673.462 669.574 669.574 669.574 681.12 669.574 691.343 669.574 681.12 669.574
          669.574 669.574 691.343 696.773 691.343 669.574 669.574 681.12 691.343 681.12 669.574 669.574
          669.574 669.574 669.574 669.574 660.265 660.265 660.265 660.265 660.265 660.265 660.265 660.265
          660.265 660.265 660.265 660.265 660.265 660.265 660.265 660.265 660.265 660.265 660.265 660.265
          660.265 660.265 660.265 660.265 660.265
        </DataArray>
        <DataArray type="Float32" Name="u" NumberOfComponents="3" format="ascii">
          0 0 0 -0.00277252 0 0 0 -0.00277252 0 -0.0051998 -0.0051998 0
          0 0 0.0145802 -0.00358451 0 0.0138498 0 -0.00358451 0.0138498 -0.00763547 -0.00763547 0.0113756
          -9.79884e-15 0 0 -1.44773e-14 -0.00758703 0 -1.00197e-14 0 0.0124885 -1.53415e-14 -0.0123225 0.00747015
          0.00277252 0 0 0.0051998 -0.0051998 0 0.00358451 0 0.0138498 0.00763547 -0.00763547 0.0113756
          0 0 0 0 -0.00277252 0 0 0 0.0145802 0 -0.00358451 0.0138498
          0 1.83053e-14 0 -0.00758703 2.46317e-14 0 0 2.14797e-14 0.0124885 -0.0123225 3.20727e-14 0.00747015
          -1.88118e-14 2.81335e-14 0 -2.59811e-14 3.94561e-14 -0.0187165 0.00758703 2.19885e-14 0 0.0123225 2.46214e-14 0.00747015
          0 1.53305e-14 0 0 1.68608e-14 0.0124885 0 0.00277252 0 -0.0051998 0.0051998 0
          0 0.00358451 0.0138498 -0.00763547 0.00763547 0.0113756 -1.7079e-14 0.00758703 0 -2.27929e-14 0.0123225 0.00747015
          0.0051998 0.0051998 0 0.00763547 0.00763547 0.0113756 0 0.00277252 0 0 0.00358451 0.0138498
          0 0 0 -0.00277252 0 0 0 0 0.0145802 -0.00358451 0 0.0138498
          -1.27552e-14 0 0 -1.4648e-14 0 0.0124885 0.00277252 0 0 0.00358451 0 0.0138498
          0 0 0 0 0 0.0145802 0 0 0.0313702 -0.00482824 0 0.0322354
          0 -0.00482824 0.0322354 -0.0114511 -0.0114511 0.0332345 -9.62908e-15 0 0.0330174 -1.48717e-14 -0.0385885 0.0340769
          0.00482824 0 0.0322354 0.0114511 -0.0114511 0.0332345 0 0 0.0313702 0 -0.00482824 0.0322354
          0 2.7739e-14 0.0330174 -0.0385885 4.85379e-14 0.0340769 -2.56557e-14 5.45646e-14 0.0347518 0.0385885 3.43301e-14 0.0340769
          0 2.12522e-14 0.0330174 0 0.00482824 0.0322354 -0.0114511 0.0114511 0.0332345 -2.90865e-14 0.0385885 0.0340769
          0.0114511 0.0114511 0.0332345 0 0.00482824 0.0322354 0 0 0.0313702 -0.00482824 0 0.0322354
          -1.61145e-14 0 0.0330174 0.00482824 0 0.0322354 0 0 0.0313702 0 0 0.0449152
          -0.00262126 0 0.0482306 0 -0.00262126 0.0482306 -0.00589184 -0.00589184 0.0548623 -1.02569e-14 0 0.0521098
          -1.52085e-14 -0.0103042 0.0622795 0.00262126 0 0.0482306 0.00589184 -0.00589184 0.0548623 0 0 0.0449152
          0 -0.00262126 0.0482306 0 3.05427e-14 0.0521098 -0.0103042 4.65948e-14 0.0622795 -1.81196e-14 5.82778e-14 0.0930209
          0.0103042 4.24385e-14 0.0622795 0 2.74413e-14 0.0521098 0 0.00262126 0.0482306 -0.00589184 0.00589184 0.0548623
          -1.9367e-14 0.0103042 0.0622795 0.00589184 0.00589184 0.0548623 0 0.00262126 0.0482306 0 0 0.0449152
          -0.00262126 0 0.0482306 -1.33697e-14 0 0.0521098 0.00262126 0 0.0482306 0 0 0.0449152
          0 0 0.0507414 -0.00333445 0 0.0545541 0 -0.00333445 0.0545541 -0.0050437 -0.0050437 0.062298
          -1.53866e-14 0 0.0583753 -1.81421e-14 -0.00717425 0.0708312 0.00333445 0 0.0545541 0.0050437 -0.0050437 0.062298
          0 0 0.0507414 0 -0.00333445 0.0545541 0 4.6039e-14 0.0583753 -0.00717425 5.42861e-14 0.0708312
          -2.0945e-14 6.02261e-14 0.0801422 0.00717425 5.06073e-14 0.0708312 0 4.19774e-14 0.0583753 0 0.00333445 0.0545541
          -0.0050437 0.0050437 0.062298 -2.18319e-14 0.00717425 0.0708312 0.0050437 0.0050437 0.062298 0 0.00333445 0.0545541
          0 0 0.0507414 -0.00333445 0 0.0545541 -1.94665e-14 0 0.0583753 0.00333445 0 0.0545541
          0 0 0.0507414
        </DataArray>
      </PointData>
      <CellData Scalars="principal stress 1" Vectors="effective stress changes X">
        <DataArray type="Float32" Name="effective stress changes X" NumberOfComponents="3" format="ascii">
          70510.4 32391.2 16130.7 -148681 33881.3 21285.8 -148681 -33881.3 -21285.8 70510.4 -32391.2 -16130.7
          111005 33881.3 36659.3 -285539 35371.4 93158.1 -285539 -35371.4 -93158.1 111005 -33881.3 -36659.3
          111005 -33881.3 36659.3 -285539 -35371.4 93158.1 -285539 35371.4 -93158.1 111005 33881.3 -36659.3
          70510.4 -32391.2 16130.7 -148681 -33881.3 21285.8 -148681 33881.3 -21285.8 70510.4 32391.2 -16130.7
          103461 53369.2 15999.4 -212300 106246 21753.9 -212300 -106246 -21753.9 103461 -53369.2 -15999.4
          275185 106246 88789 -797547 159122 146641 -797547 -159122 -146641 275185 -106246 -88789
          275185 -106246 88789 -797547 -159122 146641 -797547 159122 -146641 275185 106246 -88789
          103461 -53369.2 15999.4 -212300 -106246 21753.9 -212300 106246 -21753.9 103461 53369.2 -15999.4
          94665 49467.2 -48944 -196420 103608 -51717.6 -196420 -103608 51717.6 94665 -49467.2 48944
          258720 103608 -131759 -779134 157749 -183799 -779134 -157749 183799 258720 -103608 131759
          258720 -103608 -131759 -779134 -157749 -183799 -779134 157749 183799 258720 103608 131759
          94665 -49467.2 -48944 -196420 -103608 -51717.6 -196420 103608 51717.6 94665 49467.2 48944
          97578.8 24899.1 -54096.7 -112879 28806.9 -59464.3 -112879 -28806.9 59464.3 97578.8 -24899.1 54096.7
          113647 28806.9 -102448 -256217 32714.7 -149952 -256217 -32714.7 149952 113647 -28806.9 102448
          113647 -28806.9 -102448 -256217 -32714.7 -149952 -256217 32714.7 149952 113647 28806.9 102448
          97578.8 -24899.1 -54096.7 -112879 -28806.9 -59464.3 -112879 28806.9 59464.3 97578.8 24899.1 54096.7
        </DataArray>
        <DataArray type="Float32" Name="effective stress changes Y" NumberOfComponents="3" format="ascii">
          32391.2 70510.4 16130.7 33881.3 111005 36659.3 -33881.3 111005 36659.3 -32391.2 70510.4 16130.7
          33881.3 -148681 21285.8 35371.4 -285539 93158.1 -35371.4 -285539 93158.1 -33881.3 -148681 21285.8
          -33881.3 -148681 -21285.8 -35371.4 -285539 -93158.1 35371.4 -285539 -93158.1 33881.3 -148681 -21285.8
          -32391.2 70510.4 -16130.7 -33881.3 111005 -36659.3 33881.3 111005 -36659.3 32391.2 70510.4 -16130.7
          53369.2 103461 15999.4 106246 275185 88789 -106246 275185 88789 -53369.2 103461 15999.4
          106246 -212300 21753.9 159122 -797547 146641 -159122 -797547 146641 -106246 -212300 21753.9
          -106246 -212300 -21753.9 -159122 -797547 -146641 159122 -797547 -146641 106246 -212300 -21753.9
          -53369.2 103461 -15999.4 -106246 275185 -88789 106246 275185 -88789 53369.2 103461 -15999.4
          49467.2 94665 -48944 103608 258720 -131759 -103608 258720 -131759 -49467.2 94665 -48944
          103608 -196420 -51717.6 157749 -779134 -183799 -157749 -779134 -183799 -103608 -196420 -51717.6
          -103608 -196420 51717.6 -157749 -779134 183799 157749 -779134 183799 103608 -196420 51717.6
          -49467.2 94665 48944 -103608 258720 131759 103608 258720 131759 49467.2 94665 48944
          24899.1 97578.8 -54096.7 28806.9 113647 -102448 -28806.9 113647 -102448 -24899.1 97578.8 -54096.7
          28806.9 -112879 -59464.3 32714.7 -256217 -149952 -32714.7 -256217 -149952 -28806.9 -112879 -59464.3
          -28806.9 -112879 59464.3 -32714.7 -256217 149952 32714.7 -256217 149952 28806.9 -112879 59464.3
          -24899.1 97578.8 54096.7 -28806.9 113647 102448 28806.9 113647 102448 24899.1 97578.8 54096.7
        </DataArray>
        <DataArray type="Float32" Name="effective stress changes Z" NumberOfComponents="3" format="ascii">
          16130.7 16130.7 -293728 21285.8 36659.3 -278639 -21285.8 36659.3 -278639 -16130.7 16130.7 -293728
          36659.3 21285.8 -278639 93158.1 93158.1 -159812 -93158.1 93158.1 -159812 -36659.3 21285.8 -278639
          36659.3 -21285.8 -278639 93158.1 -93158.1 -159812 -93158.1 -93158.1 -159812 -36659.3 -21285.8 -278639
          16130.7 -16130.7 -293728 21285.8 -36659.3 -278639 -21285.8 -36659.3 -278639 -16130.7 -16130.7 -293728
          15999.4 15999.4 -411136 21753.9 88789 -511703 -21753.9 88789 -511703 -15999.4 15999.4 -411136
          88789 21753.9 -511703 146641 146641 -1.09026e+06 -146641 146641 -1.09026e+06 -88789 21753.9 -511703
          88789 -21753.9 -511703 146641 -146641 -1.09026e+06 -146641 -146641 -1.09026e+06 -88789 -21753.9 -511703
          15999.4 -15999.4 -411136 21753.9 -88789 -511703 -21753.9 -88789 -511703 -15999.4 -15999.4 -411136
          -48944 -48944 -365113 -51717.6 -131759 -497048 51717.6 -131759 -497048 48944 -48944 -365113
          -131759 -51717.6 -497048 -183799 -183799 -1.12947e+06 183799 -183799 -1.12947e+06 131759 -51717.6 -497048
          -131759 51717.6 -497048 -183799 183799 -1.12947e+06 183799 183799 -1.12947e+06 131759 51717.6 -497048
          -48944 48944 -365113 -51717.6 131759 -497048 51717.6 131759 -497048 48944 48944 -365113
          -54096.7 -54096.7 -116422 -59464.3 -102448 -171305 59464.3 -102448 -171305 54096.7 -54096.7 -116422
          -102448 -59464.3 -171305 -149952 -149952 -172449 149952 -149952 -172449 102448 -59464.3 -171305
          -102448 59464.3 -171305 -149952 149952 -172449 149952 149952 -172449 102448 59464.3 -171305
          -54096.7 54096.7 -116422 -59464.3 102448 -171305 59464.3 102448 -171305 54096.7 54096.7 -116422
        </DataArray>
        <DataArray type="Float32" Name="principal stress 1" NumberOfComponents="1" format="ascii">
          4.30394e+07 4.32126e+07 4.32126e+07 4.30394e+07 4.32126e+07 4.32438e+07 4.32438e+07 4.32126e+07 4.32126e+07 4.32438e+07 4.32438e+07 4.32126e+07
          4.30394e+07 4.32126e+07 4.32126e+07 4.30394e+07 3.74088e+07 3.77761e+07 3.77761e+07 3.74088e+07 3.77761e+07 3.81095e+07 3.81095e+07 3.77761e+07
          3.77761e+07 3.81095e+07 3.81095e+07 3.77761e+07 3.74088e+07 3.77761e+07 3.77761e+07 3.74088e+07 3.16766e+07 3.20309e+07 3.20309e+07 3.16766e+07
          3.20309e+07 3.23961e+07 3.23961e+07 3.20309e+07 3.20309e+07 3.23961e+07 3.23961e+07 3.20309e+07 3.16766e+07 3.20309e+07 3.20309e+07 3.16766e+07
          2.58756e+07 2.59781e+07 2.59781e+07 2.58756e+07 2.59781e+07 2.58894e+07 2.58894e+07 2.59781e+07 2.59781e+07 2.58894e+07 2.58894e+07 2.59781e+07
          2.58756e+07 2.59781e+07 2.59781e+07 2.58756e+07
        </DataArray>
        <DataArray type="Float32" Name="principal stress 2" NumberOfComponents="1" format="ascii">
          4.30394e+07 4.29529e+07 4.29529e+07 4.30394e+07 4.29529e+07 4.31181e+07 4.31181e+07 4.29529e+07 4.29529e+07 4.31181e+07 4.31181e+07 4.29529e+07
          4.30394e+07 4.29529e+07 4.29529e+07 4.30394e+07 3.74088e+07 3.72886e+07 3.72886e+07 3.74088e+07 3.72886e+07 3.81095e+07 3.81095e+07 3.72886e+07
          3.72886e+07 3.81095e+07 3.81095e+07 3.72886e+07 3.74088e+07 3.72886e+07 3.72886e+07 3.74088e+07 3.16766e+07 3.15757e+07 3.15757e+07 3.16766e+07
          3.15757e+07 3.23961e+07 3.23961e+07 3.15757e+07 3.15757e+07 3.23961e+07 3.23961e+07 3.15757e+07 3.16766e+07 3.15757e+07 3.15757e+07 3.16766e+07
          2.58756e+07 2.57516e+07 2.57516e+07 2.58756e+07 2.57516e+07 2.58056e+07 2.58056e+07 2.57516e+07 2.57516e+07 2.58056e+07 2.58056e+07 2.57516e+07
          2.58756e+07 2.57516e+07 2.57516e+07 2.58756e+07
        </DataArray>
        <DataArray type="Float32" Name="principal stress 3" NumberOfComponents="1" format="ascii">
          4.26752e+07 4.28229e+07 4.28229e+07 4.26752e+07 4.28229e+07 4.31181e+07 4.31181e+07 4.28229e+07 4.28229e+07 4.31181e+07 4.31181e+07 4.28229e+07
          4.26752e+07 4.28229e+07 4.28229e+07 4.26752e+07 3.68942e+07 3.69892e+07 3.69892e+07 3.68942e+07 3.69892e+07 3.78168e+07 3.78168e+07 3.69892e+07
          3.69892e+07 3.78168e+07 3.78168e+07 3.69892e+07 3.68942e+07 3.69892e+07 3.69892e+07 3.68942e+07 3.12168e+07 3.12751e+07 3.12751e+07 3.12168e+07
          3.12751e+07 3.20457e+07 3.20457e+07 3.12751e+07 3.12751e+07 3.20457e+07 3.20457e+07 3.12751e+07 3.12168e+07 3.12751e+07 3.12751e+07 3.12168e+07
          2.56616e+07 2.56932e+07 2.56932e+07 2.56616e+07 2.56932e+07 2.58056e+07 2.58056e+07 2.56932e+07 2.56932e+07 2.58056e+07 2.58056e+07 2.56932e+07
          2.56616e+07 2.56932e+07 2.56932e+07 2.56616e+07
        </DataArray>
        <DataArray type="Float32" Name="total stresses X" NumberOfComponents="3" format="ascii">
          4.30394e+07 32391.2 16130.7 4.29529e+07 33881.3 21285.8 4.29529e+07 -33881.3 -21285.8 4.30394e+07 -32391.2 -16130.7
          4.32126e+07 33881.3 36659.3 4.31181e+07 35371.4 93158.1 4.31181e+07 -35371.4 -93158.1 4.32126e+07 -33881.3 -36659.3
          4.32126e+07 -33881.3 36659.3 4.31181e+07 -35371.4 93158.1 4.31181e+07 35371.4 -93158.1 4.32126e+07 33881.3 -36659.3
          4.30394e+07 -32391.2 16130.7 4.29529e+07 -33881.3 21285.8 4.29529e+07 33881.3 -21285.8 4.30394e+07 32391.2 -16130.7
          3.74088e+07 53369.2 15999.4 3.72886e+07 106246 21753.9 3.72886e+07 -106246 -21753.9 3.74088e+07 -53369.2 -15999.4
          3.77761e+07 106246 88789 3.81095e+07 159122 146641 3.81095e+07 -159122 -146641 3.77761e+07 -106246 -88789
          3.77761e+07 -106246 88789 3.81095e+07 -159122 146641 3.81095e+07 159122 -146641 3.77761e+07 106246 -88789
          3.74088e+07 -53369.2 15999.4 3.72886e+07 -106246 21753.9 3.72886e+07 106246 -21753.9 3.74088e+07 53369.2 -15999.4
          3.16766e+07 49467.2 -48944 3.15757e+07 103608 -51717.6 3.15757e+07 -103608 51717.6 3.16766e+07 -49467.2 48944
          3.20309e+07 103608 -131759 3.23961e+07 157749 -183799 3.23961e+07 -157749 183799 3.20309e+07 -103608 131759
          3.20309e+07 -103608 -131759 3.23961e+07 -157749 -183799 3.23961e+07 157749 183799 3.20309e+07 103608 131759
          3.16766e+07 -49467.2 -48944 3.15757e+07 -103608 -51717.6 3.15757e+07 103608 51717.6 3.16766e+07 49467.2 48944
          2.58756e+07 24899.1 -54096.7 2.57516e+07 28806.9 -59464.3 2.57516e+07 -28806.9 59464.3 2.58756e+07 -24899.1 54096.7
          2.59781e+07 28806.9 -102448 2.58056e+07 32714.7 -149952 2.58056e+07 -32714.7 149952 2.59781e+07 -28806.9 102448
          2.59781e+07 -28806.9 -102448 2.58056e+07 -32714.7 -149952 2.58056e+07 32714.7 149952 2.59781e+07 28806.9 102448
          2.58756e+07 -24899.1 -54096.7 2.57516e+07 -28806.9 -59464.3 2.57516e+07 28806.9 59464.3 2.58756e+07 24899.1 54096.7
        </DataArray>
        <DataArray type="Float32" Name="total stresses Y" NumberOfComponents="3" format="ascii">
          32391.2 4.30394e+07 16130.7 33881.3 4.32126e+07 36659.3 -33881.3 4.32126e+07 36659.3 -32391.2 4.30394e+07 16130.7
          33881.3 4.29529e+07 21285.8 35371.4 4.31181e+07 93158.1 -35371.4 4.31181e+07 93158.1 -33881.3 4.29529e+07 21285.8
          -33881.3 4.29529e+07 -21285.8 -35371.4 4.31181e+07 -93158.1 35371.4 4.31181e+07 -93158.1 33881.3 4.29529e+07 -21285.8
          -32391.2 4.30394e+07 -16130.7 -33881.3 4.32126e+07 -36659.3 33881.3 4.32126e+07 -36659.3 32391.2 4.30394e+07 -16130.7
          53369.2 3.74088e+07 15999.4 106246 3.77761e+07 88789 -106246 3.77761e+07 88789 -53369.2 3.74088e+07 15999.4
          106246 3.72886e+07 21753.9 159122 3.81095e+07 146641 -159122 3.81095e+07 146641 -106246 3.72886e+07 21753.9
          -106246 3.72886e+07 -21753.9 -159122 3.81095e+07 -146641 159122 3.81095e+07 -146641 106246 3.72886e+07 -21753.9
          -53369.2 3.74088e+07 -15999.4 -106246 3.77761e+07 -88789 106246 3.77761e+07 -88789 53369.2 3.74088e+07 -15999.4
          49467.2 3.16766e+07 -48944 103608 3.20309e+07 -131759 -103608 3.20309e+07 -131759 -49467.2 3.16766e+07 -48944
          103608 3.15757e+07 -51717.6 157749 3.23961e+07 -183799 -157749 3.23961e+07 -183799 -103608 3.15757e+07 -51717.6
          -103608 3.15757e+07 51717.6 -157749 3.23961e+07 183799 157749 3.23961e+07 183799 103608 3.15757e+07 51717.6
          -49467.2 3.16766e+07 48944 -103608 3.20309e+07 131759 103608 3.20309e+07 131759 49467.2 3.16766e+07 48944
          24899.1 2.58756e+07 -54096.7 28806.9 2.59781e+07 -102448 -28806.9 2.59781e+07 -102448 -24899.1 2.58756e+07 -54096.7
          28806.9 2.57516e+07 -59464.3 32714.7 2.58056e+07 -149952 -32714.7 2.58056e+07 -149952 -28806.9 2.57516e+07 -59464.3
          -28806.9 2.57516e+07 59464.3 -32714.7 2.58056e+07 149952 32714.7 2.58056e+07 149952 28806.9 2.57516e+07 59464.3
          -24899.1 2.58756e+07 54096.7 -28806.9 2.59781e+07 102448 28806.9 2.59781e+07 102448 24899.1 2.58756e+07 54096.7
        </DataArray>
        <DataArray type="Float32" Name="total stresses Z" NumberOfComponents="3" format="ascii">
          16130.7 16130.7 4.26752e+07 21285.8 36659.3 4.28229e+07 -21285.8 36659.3 4.28229e+07 -16130.7 16130.7 4.26752e+07
          36659.3 21285.8 4.28229e+07 93158.1 93158.1 4.32438e+07 -93158.1 93158.1 4.32438e+07 -36659.3 21285.8 4.28229e+07
          36659.3 -21285.8 4.28229e+07 93158.1 -93158.1 4.32438e+07 -93158.1 -93158.1 4.32438e+07 -36659.3 -21285.8 4.28229e+07
          16130.7 -16130.7 4.26752e+07 21285.8 -36659.3 4.28229e+07 -21285.8 -36659.3 4.28229e+07 -16130.7 -16130.7 4.26752e+07
          15999.4 15999.4 3.68942e+07 21753.9 88789 3.69892e+07 -21753.9 88789 3.69892e+07 -15999.4 15999.4 3.68942e+07
          88789 21753.9 3.69892e+07 146641 146641 3.78168e+07 -146641 146641 3.78168e+07 -88789 21753.9 3.69892e+07
          88789 -21753.9 3.69892e+07 146641 -146641 3.78168e+07 -146641 -146641 3.78168e+07 -88789 -21753.9 3.69892e+07
          15999.4 -15999.4 3.68942e+07 21753.9 -88789 3.69892e+07 -21753.9 -88789 3.69892e+07 -15999.4 -15999.4 3.68942e+07
          -48944 -48944 3.12168e+07 -51717.6 -131759 3.12751e+07 51717.6 -131759 3.12751e+07 48944 -48944 3.12168e+07
          -131759 -51717.6 3.12751e+07 -183799 -183799 3.20457e+07 183799 -183799 3.20457e+07 131759 -51717.6 3.12751e+07
          -131759 51717.6 3.12751e+07 -183799 183799 3.20457e+07 183799 183799 3.20457e+07 131759 51717.6 3.12751e+07
          -48944 48944 3.12168e+07 -51717.6 131759 3.12751e+07 51717.6 131759 3.12751e+07 48944 48944 3.12168e+07
          -54096.7 -54096.7 2.56616e+07 -59464.3 -102448 2.56932e+07 59464.3 -102448 2.56932e+07 54096.7 -54096.7 2.56616e+07
          -102448 -59464.3 2.56932e+07 -149952 -149952 2.58894e+07 149952 -149952 2.58894e+07 102448 -59464.3 2.56932e+07
          -102448 59464.3 2.56932e+07 -149952 149952 2.58894e+07 149952 149952 2.58894e+07 102448 59464.3 2.56932e+07
          -54096.7 54096.7 2.56616e+07 -59464.3 102448 2.56932e+07 59464.3 102448 2.56932e+07 54096.7 54096.7 2.56616e+07
        </DataArray>
        <DataArray type="Float32" Name="initial stresses X" NumberOfComponents="3" format="ascii">
          4.28905e+07 0 0 4.28905e+07 0 0 4.28905e+07 0 0 4.28905e+07 0 0
          4.28905e+07 0 0 4.28905e+07 0 0 4.28905e+07 0 0 4.28905e+07 0 0
          4.28905e+07 0 0 4.28905e+07 0 0 4.28905e+07 0 0 4.28905e+07 0 0
          4.28905e+07 0 0 4.28905e+07 0 0 4.28905e+07 0 0 4.28905e+07 0 0
          3.71718e+07 0 0 3.71718e+07 0 0 3.71718e+07 0 0 3.71718e+07 0 0
          3.71718e+07 0 0 3.71718e+07 0 0 3.71718e+07 0 0 3.71718e+07 0 0
          3.71718e+07 0 0 3.71718e+07 0 0 3.71718e+07 0 0 3.71718e+07 0 0
          3.71718e+07 0 0 3.71718e+07 0 0 3.71718e+07 0 0 3.71718e+07 0 0
          3.14531e+07 0 0 3.14531e+07 0 0 3.14531e+07 0 0 3.14531e+07 0 0
          3.14531e+07 0 0 3.14531e+07 0 0 3.14531e+07 0 0 3.14531e+07 0 0
          3.14531e+07 0 0 3.14531e+07 0 0 3.14531e+07 0 0 3.14531e+07 0 0
          3.14531e+07 0 0 3.14531e+07 0 0 3.14531e+07 0 0 3.14531e+07 0 0
          2.57343e+07 0 0 2.57343e+07 0 0 2.57343e+07 0 0 2.57343e+07 0 0
          2.57343e+07 0 0 2.57343e+07 0 0 2.57343e+07 0 0 2.57343e+07 0 0
          2.57343e+07 0 0 2.57343e+07 0 0 2.57343e+07 0 0 2.57343e+07 0 0
          2.57343e+07 0 0 2.57343e+07 0 0 2.57343e+07 0 0 2.57343e+07 0 0
        </DataArray>
        <DataArray type="Float32" Name="initial stresses Y" NumberOfComponents="3" format="ascii">
          0 4.28905e+07 0 0 4.28905e+07 0 0 4.28905e+07 0 0 4.28905e+07 0
          0 4.28905e+07 0 0 4.28905e+07 0 0 4.28905e+07 0 0 4.28905e+07 0
          0 4.28905e+07 0 0 4.28905e+07 0 0 4.28905e+07 0 0 4.28905e+07 0
          0 4.28905e+07 0 0 4.28905e+07 0 0 4.28905e+07 0 0 4.28905e+07 0
          0 3.71718e+07 0 0 3.71718e+07 0 0 3.71718e+07 0 0 3.71718e+07 0
          0 3.71718e+07 0 0 3.71718e+07 0 0 3.71718e+07 0 0 3.71718e+07 0
          0 3.71718e+07 0 0 3.71718e+07 0 0 3.71718e+07 0 0 3.71718e+07 0
          0 3.71718e+07 0 0 3.71718e+07 0 0 3.71718e+07 0 0 3.71718e+07 0
          0 3.14531e+07 0 0 3.14531e+07 0 0 3.14531e+07 0 0 3.14531e+07 0
          0 3.14531e+07 0 0 3.14531e+07 0 0 3.14531e+07 0 0 3.14531e+07 0
          0 3.14531e+07 0 0 3.14531e+07 0 0 3.14531e+07 0 0 3.14531e+07 0
          0 3.14531e+07 0 0 3.14531e+07 0 0 3.14531e+07 0 0 3.14531e+07 0
          0 2.57343e+07 0 0 2.57343e+07 0 0 2.57343e+07 0 0 2.57343e+07 0
          0 2.57343e+07 0 0 2.57343e+07 0 0 2.57343e+07 0 0 2.57343e+07 0
          0 2.57343e+07 0 0 2.57343e+07 0 0 2.57343e+07 0 0 2.57343e+07 0
          0 2.57343e+07 0 0 2.57343e+07 0 0 2.57343e+07 0 0 2.57343e+07 0
        </DataArray>
        <DataArray type="Float32" Name="initial stresses Z" NumberOfComponents="3" format="ascii">
          0 0 4.28905e+07 0 0 4.28905e+07 0 0 4.28905e+07 0 0 4.28905e+07
          0 0 4.28905e+07 0 0 4.28905e+07 0 0 4.28905e+07 0 0 4.28905e+07
          0 0 4.28905e+07 0 0 4.28905e+07 0 0 4.28905e+07 0 0 4.28905e+07
          0 0 4.28905e+07 0 0 4.28905e+07 0 0 4.28905e+07 0 0 4.28905e+07
          0 0 3.71718e+07 0 0 3.71718e+07 0 0 3.71718e+07 0 0 3.71718e+07
          0 0 3.71718e+07 0 0 3.71718e+07 0 0 3.71718e+07 0 0 3.71718e+07
          0 0 3.71718e+07 0 0 3.71718e+07 0 0 3.71718e+07 0 0 3.71718e+07
          0 0 3.71718e+07 0 0 3.71718e+07 0 0 3.71718e+07 0 0 3.71718e+07
          0 0 3.14531e+07 0 0 3.14531e+07 0 0 3.14531e+07 0 0 3.14531e+07
          0 0 3.14531e+07 0 0 3.14531e+07 0 0 3.14531e+07 0 0 3.14531e+07
          0 0 3.14531e+07 0 0 3.14531e+07 0 0 3.14531e+07 0 0 3.14531e+07
          0 0 3.14531e+07 0 0 3.14531e+07 0 0 3.14531e+07 0 0 3.14531e+07
          0 0 2.57343e+07 0 0 2.57343e+07 0 0 2.57343e+07 0 0 2.57343e+07
          0 0 2.57343e+07 0 0 2.57343e+07 0 0 2.57343e+07 0 0 2.57343e+07
          0 0 2.57343e+07 0 0 2.57343e+07 0 0 2.57343e+07 0 0 2.57343e+07
          0 0 2.57343e+07 0 0 2.57343e+07 0 0 2.57343e+07 0 0 2.57343e+07
        </DataArray>
        <DataArray type="Float32" Name="delta pEff" NumberOfComponents="1" format="ascii">
          78373.1 211012 211012 78373.1 211012 513102 513102 211012 211012 513102 513102 211012
          78373.1 211012 211012 78373.1 133558 329132 329132 133558 329132 1.73522e+06 1.73522e+06 329132
          329132 1.73522e+06 1.73522e+06 329132 133558 329132 329132 133558 128839 319095 319095 128839
          319095 1.72213e+06 1.72213e+06 319095 319095 1.72213e+06 1.72213e+06 319095 128839 319095 319095 128839
          43660.4 130161 130161 43660.4 130161 327499 327499 130161 130161 327499 327499 130161
          43660.4 130161 130161 43660.4
        </DataArray>
        <DataArray type="Float32" Name="effectivePressure" NumberOfComponents="1" format="ascii">
          1.96587e+07 1.97913e+07 1.97913e+07 1.96587e+07 1.97913e+07 2.00934e+07 2.00934e+07 1.97913e+07 1.97913e+07 2.00934e+07 2.00934e+07 1.97913e+07
          1.96587e+07 1.97913e+07 1.97913e+07 1.96587e+07 1.71166e+07 1.73122e+07 1.73122e+07 1.71166e+07 1.73122e+07 1.87183e+07 1.87183e+07 1.73122e+07
          1.73122e+07 1.87183e+07 1.87183e+07 1.73122e+07 1.71166e+07 1.73122e+07 1.73122e+07 1.71166e+07 1.45147e+07 1.4705e+07 1.4705e+07 1.45147e+07
          1.4705e+07 1.6108e+07 1.6108e+07 1.4705e+07 1.4705e+07 1.6108e+07 1.6108e+07 1.4705e+07 1.45147e+07 1.4705e+07 1.4705e+07 1.45147e+07
          1.18323e+07 1.19188e+07 1.19188e+07 1.18323e+07 1.19188e+07 1.21162e+07 1.21162e+07 1.19188e+07 1.19188e+07 1.21162e+07 1.21162e+07 1.19188e+07
          1.18323e+07 1.19188e+07 1.19188e+07 1.18323e+07
        </DataArray>
        <DataArray type="Float32" Name="Pcr_tensile" NumberOfComponents="1" format="ascii">
          -2.30165e+07 -2.30316e+07 -2.30316e+07 -2.30165e+07 -2.30316e+07 -2.30247e+07 -2.30247e+07 -2.30316e+07 -2.30316e+07 -2.30247e+07 -2.30247e+07 -2.30316e+07
          -2.30165e+07 -2.30316e+07 -2.30316e+07 -2.30165e+07 -1.97776e+07 -1.9677e+07 -1.9677e+07 -1.97776e+07 -1.9677e+07 -1.90985e+07 -1.90985e+07 -1.9677e+07
          -1.9677e+07 -1.90985e+07 -1.90985e+07 -1.9677e+07 -1.97776e+07 -1.9677e+07 -1.9677e+07 -1.97776e+07 -1.67021e+07 -1.65701e+07 -1.65701e+07 -1.67021e+07
          -1.65701e+07 -1.59377e+07 -1.59377e+07 -1.65701e+07 -1.65701e+07 -1.59377e+07 -1.59377e+07 -1.65701e+07 -1.67021e+07 -1.65701e+07 -1.65701e+07 -1.67021e+07
          -1.38292e+07 -1.37743e+07 -1.37743e+07 -1.38292e+07 -1.37743e+07 -1.36894e+07 -1.36894e+07 -1.37743e+07 -1.37743e+07 -1.36894e+07 -1.36894e+07 -1.37743e+07
          -1.38292e+07 -1.37743e+07 -1.37743e+07 -1.38292e+07
        </DataArray>
        <DataArray type="Float32" Name="Pcr_shear" NumberOfComponents="1" format="ascii">
          -2.28344e+07 -2.28368e+07 -2.28368e+07 -2.28344e+07 -2.28368e+07 -2.29619e+07 -2.29619e+07 -2.28368e+07 -2.28368e+07 -2.29619e+07 -2.29619e+07 -2.28368e+07
          -2.28344e+07 -2.28368e+07 -2.28368e+07 -2.28344e+07 -1.95203e+07 -1.92836e+07 -1.92836e+07 -1.95203e+07 -1.92836e+07 -1.89521e+07 -1.89521e+07 -1.92836e+07
          -1.92836e+07 -1.89521e+07 -1.89521e+07 -1.92836e+07 -1.95203e+07 -1.92836e+07 -1.92836e+07 -1.95203e+07 -1.64722e+07 -1.61922e+07 -1.61922e+07 -1.64722e+07
          -1.61922e+07 -1.57625e+07 -1.57625e+07 -1.61922e+07 -1.61922e+07 -1.57625e+07 -1.57625e+07 -1.61922e+07 -1.64722e+07 -1.61922e+07 -1.61922e+07 -1.64722e+07
          -1.37222e+07 -1.36319e+07 -1.36319e+07 -1.37222e+07 -1.36319e+07 -1.36475e+07 -1.36475e+07 -1.36319e+07 -1.36319e+07 -1.36475e+07 -1.36475e+07 -1.36319e+07
          -1.37222e+07 -1.36319e+07 -1.36319e+07 -1.37222e+07
        </DataArray>
        <DataArray type="Float32" Name="effective Kxx" NumberOfComponents="1" format="ascii">
          1.00136e-14 1.00281e-14 1.00281e-14 1.00136e-14 1.00281e-14 1.00651e-14 1.00651e-14 1.00281e-14 1.00281e-14 1.00651e-14 1.00651e-14 1.00281e-14
          1.00136e-14 1.00281e-14 1.00281e-14 1.00136e-14 1.00182e-14 1.004e-14 1.004e-14 1.00182e-14 1.004e-14 1.02414e-14 1.02414e-14 1.004e-14
          1.004e-14 1.02414e-14 1.02414e-14 1.004e-14 1.00182e-14 1.004e-14 1.004e-14 1.00182e-14 1.00156e-14 1.00387e-14 1.00387e-14 1.00156e-14
          1.00387e-14 1.02416e-14 1.02416e-14 1.00387e-14 1.00387e-14 1.02416e-14 1.02416e-14 1.00387e-14 1.00156e-14 1.00387e-14 1.00387e-14 1.00156e-14
          9.99301e-15 1.00152e-14 1.00152e-14 9.99301e-15 1.00152e-14 1.0061e-14 1.0061e-14 1.00152e-14 1.00152e-14 1.0061e-14 1.0061e-14 1.00152e-14
          9.99301e-15 1.00152e-14 1.00152e-14 9.99301e-15
        </DataArray>
        <DataArray type="Float32" Name="effective Porosity" NumberOfComponents="1" format="ascii">
          0.200012 0.200025 0.200025 0.200012 0.200025 0.200058 0.200058 0.200025 0.200025 0.200058 0.200058 0.200025
          0.200012 0.200025 0.200025 0.200012 0.200016 0.200036 0.200036 0.200016 0.200036 0.200215 0.200215 0.200036
          0.200036 0.200215 0.200215 0.200036 0.200016 0.200036 0.200036 0.200016 0.200014 0.200035 0.200035 0.200014
          0.200035 0.200215 0.200215 0.200035 0.200035 0.200215 0.200215 0.200035 0.200014 0.200035 0.200035 0.200014
          0.199994 0.200014 0.200014 0.199994 0.200014 0.200055 0.200055 0.200014 0.200014 0.200055 0.200055 0.200014
          0.199994 0.200014 0.200014 0.199994
        </DataArray>
      </CellData>
      <Points>
        <DataArray type="Float32" Name="Coordinates" NumberOfComponents="3" format="ascii">
          0 0 0 250 0 0 0 250 0 250 250 0
          0 0 250 250 0 250 0 250 250 250 250 250
          500 0 0 500 250 0 500 0 250 500 250 250
          750 0 0 750 250 0 750 0 250 750 250 250
          1000 0 0 1000 250 0 1000 0 250 1000 250 250
          0 500 0 250 500 0 0 500 250 250 500 250
          500 500 0 500 500 250 750 500 0 750 500 250
          1000 500 0 1000 500 250 0 750 0 250 750 0
          0 750 250 250 750 250 500 750 0 500 750 250
          750 750 0 750 750 250 1000 750 0 1000 750 250
          0 1000 0 250 1000 0 0 1000 250 250 1000 250
          500 1000 0 500 1000 250 750 1000 0 750 1000 250
          1000 1000 0 1000 1000 250 0 0 500 250 0 500
          0 250 500 250 250 500 500 0 500 500 250 500
          750 0 500 750 250 500 1000 0 500 1000 250 500
          0 500 500 250 500 500 500 500 500 750 500 500
          1000 500 500 0 750 500 250 750 500 500 750 500
          750 750 500 1000 750 500 0 1000 500 250 1000 500
          500 1000 500 750 1000 500 1000 1000 500 0 0 750
          250 0 750 0 250 750 250 250 750 500 0 750
          500 250 750 750 0 750 750 250 750 1000 0 750
          1000 250 750 0 500 750 250 500 750 500 500 750
          750 500 750 1000 500 750 0 750 750 250 750 750
          500 750 750 750 750 750 1000 750 750 0 1000 750
          250 1000 750 500 1000 750 750 1000 750 1000 1000 750
          0 0 1000 250 0 1000 0 250 1000 250 250 1000
          500 0 1000 500 250 1000 750 0 1000 750 250 1000
          1000 0 1000 1000 250 1000 0 500 1000 250 500 1000
          500 500 1000 750 500 1000 1000 500 1000 0 750 1000
          250 750 1000 500 750 1000 750 750 1000 1000 750 1000
          0 1000 1000 250 1000 1000 500 1000 1000 750 1000 1000
          1000 1000 1000
        </DataArray>
      </Points>
      <Cells>
        <DataArray type="Int32" Name="connectivity" NumberOfComponents="1" format="ascii">
          0 1 3 2 4 5 7 6 1 8 9 3
          5 10 11 7 8 12 13 9 10 14 15 11
          12 16 17 13 14 18 19 15 2 3 21 20
          6 7 23 22 3 9 24 21 7 11 25 23
          9 13 26 24 11 15 27 25 13 17 28 26
          15 19 29 27 20 21 31 30 22 23 33 32
          21 24 34 31 23 25 35 33 24 26 36 34
          25 27 37 35 26 28 38 36 27 29 39 37
          30 31 41 40 32 33 43 42 31 34 44 41
          33 35 45 43 34 36 46 44 35 37 47 45
          36 38 48 46 37 39 49 47 4 5 7 6
          50 51 53 52 5 10 11 7 51 54 55 53
          10 14 15 11 54 56 57 55 14 18 19 15
          56 58 59 57 6 7 23 22 52 53 61 60
          7 11 25 23 53 55 62 61 11 15 27 25
          55 57 63 62 15 19 29 27 57 59 64 63
          22 23 33 32 60 61 66 65 23 25 35 33
          61 62 67 66 25 27 37 35 62 63 68 67
          27 29 39 37 63 64 69 68 32 33 43 42
          65 66 71 70 33 35 45 43 66 67 72 71
          35 37 47 45 67 68 73 72 37 39 49 47
          68 69 74 73 50 51 53 52 75 76 78 77
          51 54 55 53 76 79 80 78 54 56 57 55
          79 81 82 80 56 58 59 57 81 83 84 82
          52 53 61 60 77 78 86 85 53 55 62 61
          78 80 87 86 55 57 63 62 80 82 88 87
          57 59 64 63 82 84 89 88 60 61 66 65
          85 86 91 90 61 62 67 66 86 87 92 91
          62 63 68 67 87 88 93 92 63 64 69 68
          88 89 94 93 65 66 71 70 90 91 96 95
          66 67 72 71 91 92 97 96 67 68 73 72
          92 93 98 97 68 69 74 73 93 94 99 98
          75 76 78 77 100 101 103 102 76 79 80 78
          101 104 105 103 79 81 82 80 104 106 107 105
          81 83 84 82 106 108 109 107 77 78 86 85
          102 103 111 110 78 80 87 86 103 105 112 111
          80 82 88 87 105 107 113 112 82 84 89 88
          107 109 114 113 85 86 91 90 110 111 116 115
          86 87 92 91 111 112 117 116 87 88 93 92
          112 113 118 117 88 89 94 93 113 114 119 118
          90 91 96 95 115 116 121 120 91 92 97 96
          116 117 122 121 92 93 98 97 117 118 123 122
          93 94 99 98 118 119 124 123
        </DataArray>
        <DataArray type="Int32" Name="offsets" NumberOfComponents="1" format="ascii">
          8 16 24 32 40 48 56 64 72 80 88 96
          104 112 120 128 136 144 152 160 168 176 184 192
          200 208 216 224 232 240 248 256 264 272 280 288
          296 304 312 320 328 336 344 352 360 368 376 384
          392 400 408 416 424 432 440 448 456 464 472 480
          488 496 504 512
        </DataArray>
        <DataArray type="UInt8" Name="types" NumberOfComponents="1" format="ascii">
          12 12 12 12 12 12 12 12 12 12 12 12
          12 12 12 12 12 12 12 12 12 12 12 12
          12 12 12 12 12 12 12 12 12 12 12 12
          12 12 12 12 12 12 12 12 12 12 12 12
          12 12 12 12 12 12 12 12 12 12 12 12
          12 12 12 12
        </DataArray>
      </Cells>
    </Piece>
  </UnstructuredGrid>
</VTKFile>
