<?xml version="1.0"?>
<VTKFile type="UnstructuredGrid" version="0.1" byte_order="LittleEndian">
  <UnstructuredGrid>
    <Piece NumberOfCells="1000" NumberOfPoints="1331">
      <PointData Scalars="ux">
        <DataArray type="Float32" Name="ux" NumberOfComponents="1" format="ascii">
          0 -1e-07 0 -1e-07 -1.12526e-29 -1e-07 -4.15191e-30 -1e-07 -2e-07 -2e-07 -2e-07 -2e-07
          -3e-07 -3e-07 -3e-07 -3e-07 -4e-07 -4e-07 -4e-07 -4e-07 -5e-07 -5e-07 -5e-07 -5e-07
          -6e-07 -6e-07 -6e-07 -6e-07 -7e-07 -7e-07 -7e-07 -7e-07 -8e-07 -8e-07 -8e-07 -8e-07
          -9e-07 -9e-07 -9e-07 -9e-07 -1e-06 -1e-06 -1e-06 -1e-06 0 -1e-07 -5.31896e-30 -1e-07
          -2e-07 -2e-07 -3e-07 -3e-07 -4e-07 -4e-07 -5e-07 -5e-07 -6e-07 -6e-07 -7e-07 -7e-07
          -8e-07 -8e-07 -9e-07 -9e-07 -1e-06 -1e-06 0 -1e-07 2.96509e-30 -1e-07 -2e-07 -2e-07
          -3e-07 -3e-07 -4e-07 -4e-07 -5e-07 -5e-07 -6e-07 -6e-07 -7e-07 -7e-07 -8e-07 -8e-07
          -9e-07 -9e-07 -1e-06 -1e-06 0 -1e-07 -2.6928e-30 -1e-07 -2e-07 -2e-07 -3e-07 -3e-07
          -4e-07 -4e-07 -5e-07 -5e-07 -6e-07 -6e-07 -7e-07 -7e-07 -8e-07 -8e-07 -9e-07 -9e-07
          -1e-06 -1e-06 0 -1e-07 -1.05258e-30 -1e-07 -2e-07 -2e-07 -3e-07 -3e-07 -4e-07 -4e-07
          -5e-07 -5e-07 -6e-07 -6e-07 -7e-07 -7e-07 -8e-07 -8e-07 -9e-07 -9e-07 -1e-06 -1e-06
          0 -1e-07 2.41096e-30 -1e-07 -2e-07 -2e-07 -3e-07 -3e-07 -4e-07 -4e-07 -5e-07 -5e-07
          -6e-07 -6e-07 -7e-07 -7e-07 -8e-07 -8e-07 -9e-07 -9e-07 -1e-06 -1e-06 0 -1e-07
          -3.16032e-30 -1e-07 -2e-07 -2e-07 -3e-07 -3e-07 -4e-07 -4e-07 -5e-07 -5e-07 -6e-07 -6e-07
          -7e-07 -7e-07 -8e-07 -8e-07 -9e-07 -9e-07 -1e-06 -1e-06 0 -1e-07 -1.88941e-31 -1e-07
          -2e-07 -2e-07 -3e-07 -3e-07 -4e-07 -4e-07 -5e-07 -5e-07 -6e-07 -6e-07 -7e-07 -7e-07
          -8e-07 -8e-07 -9e-07 -9e-07 -1e-06 -1e-06 0 -1e-07 2.50818e-29 -1e-07 -2e-07 -2e-07
          -3e-07 -3e-07 -4e-07 -4e-07 -5e-07 -5e-07 -6e-07 -6e-07 -7e-07 -7e-07 -8e-07 -8e-07
          -9e-07 -9e-07 -1e-06 -1e-06 0 -1e-07 4.40396e-30 -1e-07 -2e-07 -2e-07 -3e-07 -3e-07
          -4e-07 -4e-07 -5e-07 -5e-07 -6e-07 -6e-07 -7e-07 -7e-07 -8e-07 -8e-07 -9e-07 -9e-07
          -1e-06 -1e-06 -8.01221e-30 -1e-07 1.05274e-29 -1e-07 -2e-07 -2e-07 -3e-07 -3e-07 -4e-07 -4e-07
          -5e-07 -5e-07 -6e-07 -6e-07 -7e-07 -7e-07 -8e-07 -8e-07 -9e-07 -9e-07 -1e-06 -1e-06
          3.89633e-29 -1e-07 -2e-07 -3e-07 -4e-07 -5e-07 -6e-07 -7e-07 -8e-07 -9e-07 -1e-06 4.49982e-29
          -1e-07 -2e-07 -3e-07 -4e-07 -5e-07 -6e-07 -7e-07 -8e-07 -9e-07 -1e-06 -1.72007e-31 -1e-07
          -2e-07 -3e-07 -4e-07 -5e-07 -6e-07 -7e-07 -8e-07 -9e-07 -1e-06 3.83351e-29 -1e-07 -2e-07
          -3e-07 -4e-07 -5e-07 -6e-07 -7e-07 -8e-07 -9e-07 -1e-06 -7.03305e-29 -1e-07 -2e-07 -3e-07
          -4e-07 -5e-07 -6e-07 -7e-07 -8e-07 -9e-07 -1e-06 -8.47752e-30 -1e-07 -2e-07 -3e-07 -4e-07
          -5e-07 -6e-07 -7e-07 -8e-07 -9e-07 -1e-06 3.13851e-29 -1e-07 -2e-07 -3e-07 -4e-07 -5e-07
          -6e-07 -7e-07 -8e-07 -9e-07 -1e-06 1.7998e-30 -1e-07 -2e-07 -3e-07 -4e-07 -5e-07 -6e-07
          -7e-07 -8e-07 -9e-07 -1e-06 -2.8068e-30 -1e-07 -2e-07 -3e-07 -4e-07 -5e-07 -6e-07 -7e-07
          -8e-07 -9e-07 -1e-06 5.6218e-29 -1e-07 1.64983e-28 -1e-07 -2e-07 -2e-07 -3e-07 -3e-07 -4e-07
          -4e-07 -5e-07 -5e-07 -6e-07 -6e-07 -7e-07 -7e-07 -8e-07 -8e-07 -9e-07 -9e-07 -1e-06
          -1e-06 3.99584e-29 -1e-07 -2e-07 -3e-07 -4e-07 -5e-07 -6e-07 -7e-07 -8e-07 -9e-07 -1e-06
          -1.41432e-29 -1e-07 -2e-07 -3e-07 -4e-07 -5e-07 -6e-07 -7e-07 -8e-07 -9e-07 -1e-06 -2.46551e-29
          -1e-07 -2e-07 -3e-07 -4e-07 -5e-07 -6e-07 -7e-07 -8e-07 -9e-07 -1e-06 -7.58931e-29 -1e-07
          -2e-07 -3e-07 -4e-07 -5e-07 -6e-07 -7e-07 -8e-07 -9e-07 -1e-06 -8.37454e-29 -1e-07 -2e-07
          -3e-07 -4e-07 -5e-07 -6e-07 -7e-07 -8e-07 -9e-07 -1e-06 -1.15215e-28 -1e-07 -2e-07 -3e-07
          -4e-07 -5e-07 -6e-07 -7e-07 -8e-07 -9e-07 -1e-06 -1.27453e-28 -1e-07 -2e-07 -3e-07 -4e-07
          -5e-07 -6e-07 -7e-07 -8e-07 -9e-07 -1e-06 3.39259e-29 -1e-07 -2e-07 -3e-07 -4e-07 -5e-07
          -6e-07 -7e-07 -8e-07 -9e-07 -1e-06 -1.39886e-31 -1e-07 -2e-07 -3e-07 -4e-07 -5e-07 -6e-07
          -7e-07 -8e-07 -9e-07 -1e-06 -1.23715e-28 -1e-07 1.06737e-28 -1e-07 -2e-07 -2e-07 -3e-07 -3e-07
          -4e-07 -4e-07 -5e-07 -5e-07 -6e-07 -6e-07 -7e-07 -7e-07 -8e-07 -8e-07 -9e-07 -9e-07
          -1e-06 -1e-06 -3.70822e-29 -1e-07 -2e-07 -3e-07 -4e-07 -5e-07 -6e-07 -7e-07 -8e-07 -9e-07
          -1e-06 -1.20497e-29 -1e-07 -2e-07 -3e-07 -4e-07 -5e-07 -6e-07 -7e-07 -8e-07 -9e-07 -1e-06
          2.34441e-29 -1e-07 -2e-07 -3e-07 -4e-07 -5e-07 -6e-07 -7e-07 -8e-07 -9e-07 -1e-06 2.68488e-31
          -1e-07 -2e-07 -3e-07 -4e-07 -5e-07 -6e-07 -7e-07 -8e-07 -9e-07 -1e-06 2.78404e-29 -1e-07
          -2e-07 -3e-07 -4e-07 -5e-07 -6e-07 -7e-07 -8e-07 -9e-07 -1e-06 1.60245e-29 -1e-07 -2e-07
          -3e-07 -4e-07 -5e-07 -6e-07 -7e-07 -8e-07 -9e-07 -1e-06 -2.21781e-31 -1e-07 -2e-07 -3e-07
          -4e-07 -5e-07 -6e-07 -7e-07 -8e-07 -9e-07 -1e-06 -8.59685e-31 -1e-07 -2e-07 -3e-07 -4e-07
          -5e-07 -6e-07 -7e-07 -8e-07 -9e-07 -1e-06 -1.97504e-29 -1e-07 -2e-07 -3e-07 -4e-07 -5e-07
          -6e-07 -7e-07 -8e-07 -9e-07 -1e-06 3.45757e-29 -1e-07 7.63101e-29 -1e-07 -2e-07 -2e-07 -3e-07
          -3e-07 -4e-07 -4e-07 -5e-07 -5e-07 -6e-07 -6e-07 -7e-07 -7e-07 -8e-07 -8e-07 -9e-07
          -9e-07 -1e-06 -1e-06 -1.79102e-29 -1e-07 -2e-07 -3e-07 -4e-07 -5e-07 -6e-07 -7e-07 -8e-07
          -9e-07 -1e-06 -3.71828e-29 -1e-07 -2e-07 -3e-07 -4e-07 -5e-07 -6e-07 -7e-07 -8e-07 -9e-07
          -1e-06 -4.68162e-29 -1e-07 -2e-07 -3e-07 -4e-07 -5e-07 -6e-07 -7e-07 -8e-07 -9e-07 -1e-06
          -1.04025e-29 -1e-07 -2e-07 -3e-07 -4e-07 -5e-07 -6e-07 -7e-07 -8e-07 -9e-07 -1e-06 1.60034e-30
          -1e-07 -2e-07 -3e-07 -4e-07 -5e-07 -6e-07 -7e-07 -8e-07 -9e-07 -1e-06 -8.59377e-29 -1e-07
          -2e-07 -3e-07 -4e-07 -5e-07 -6e-07 -7e-07 -8e-07 -9e-07 -1e-06 1.38548e-29 -1e-07 -2e-07
          -3e-07 -4e-07 -5e-07 -6e-07 -7e-07 -8e-07 -9e-07 -1e-06 -6.41972e-31 -1e-07 -2e-07 -3e-07
          -4e-07 -5e-07 -6e-07 -7e-07 -8e-07 -9e-07 -1e-06 -1.27368e-33 -1e-07 -2e-07 -3e-07 -4e-07
          -5e-07 -6e-07 -7e-07 -8e-07 -9e-07 -1e-06 1.65875e-29 -1e-07 7.99728e-31 -1e-07 -2e-07 -2e-07
          -3e-07 -3e-07 -4e-07 -4e-07 -5e-07 -5e-07 -6e-07 -6e-07 -7e-07 -7e-07 -8e-07 -8e-07
          -9e-07 -9e-07 -1e-06 -1e-06 1.12236e-29 -1e-07 -2e-07 -3e-07 -4e-07 -5e-07 -6e-07 -7e-07
          -8e-07 -9e-07 -1e-06 7.03127e-30 -1e-07 -2e-07 -3e-07 -4e-07 -5e-07 -6e-07 -7e-07 -8e-07
          -9e-07 -1e-06 7.74756e-30 -1e-07 -2e-07 -3e-07 -4e-07 -5e-07 -6e-07 -7e-07 -8e-07 -9e-07
          -1e-06 6.58314e-30 -1e-07 -2e-07 -3e-07 -4e-07 -5e-07 -6e-07 -7e-07 -8e-07 -9e-07 -1e-06
          3.51868e-31 -1e-07 -2e-07 -3e-07 -4e-07 -5e-07 -6e-07 -7e-07 -8e-07 -9e-07 -1e-06 3.31982e-30
          -1e-07 -2e-07 -3e-07 -4e-07 -5e-07 -6e-07 -7e-07 -8e-07 -9e-07 -1e-06 1.77064e-29 -1e-07
          -2e-07 -3e-07 -4e-07 -5e-07 -6e-07 -7e-07 -8e-07 -9e-07 -1e-06 -1.22796e-30 -1e-07 -2e-07
          -3e-07 -4e-07 -5e-07 -6e-07 -7e-07 -8e-07 -9e-07 -1e-06 -2.67997e-30 -1e-07 -2e-07 -3e-07
          -4e-07 -5e-07 -6e-07 -7e-07 -8e-07 -9e-07 -1e-06 -2.89282e-29 -1e-07 -3.68639e-29 -1e-07 -2e-07
          -2e-07 -3e-07 -3e-07 -4e-07 -4e-07 -5e-07 -5e-07 -6e-07 -6e-07 -7e-07 -7e-07 -8e-07
          -8e-07 -9e-07 -9e-07 -1e-06 -1e-06 2.62489e-29 -1e-07 -2e-07 -3e-07 -4e-07 -5e-07 -6e-07
          -7e-07 -8e-07 -9e-07 -1e-06 -7.55676e-30 -1e-07 -2e-07 -3e-07 -4e-07 -5e-07 -6e-07 -7e-07
          -8e-07 -9e-07 -1e-06 8.6136e-30 -1e-07 -2e-07 -3e-07 -4e-07 -5e-07 -6e-07 -7e-07 -8e-07
          -9e-07 -1e-06 9.3882e-30 -1e-07 -2e-07 -3e-07 -4e-07 -5e-07 -6e-07 -7e-07 -8e-07 -9e-07
          -1e-06 1.39848e-30 -1e-07 -2e-07 -3e-07 -4e-07 -5e-07 -6e-07 -7e-07 -8e-07 -9e-07 -1e-06
          2.16187e-29 -1e-07 -2e-07 -3e-07 -4e-07 -5e-07 -6e-07 -7e-07 -8e-07 -9e-07 -1e-06 2.0206e-29
          -1e-07 -2e-07 -3e-07 -4e-07 -5e-07 -6e-07 -7e-07 -8e-07 -9e-07 -1e-06 -9.35061e-31 -1e-07
          -2e-07 -3e-07 -4e-07 -5e-07 -6e-07 -7e-07 -8e-07 -9e-07 -1e-06 4.60068e-30 -1e-07 -2e-07
          -3e-07 -4e-07 -5e-07 -6e-07 -7e-07 -8e-07 -9e-07 -1e-06 4.91868e-30 -1e-07 -4.02156e-30 -1e-07
          -2e-07 -2e-07 -3e-07 -3e-07 -4e-07 -4e-07 -5e-07 -5e-07 -6e-07 -6e-07 -7e-07 -7e-07
          -8e-07 -8e-07 -9e-07 -9e-07 -1e-06 -1e-06 -1.48345e-30 -1e-07 -2e-07 -3e-07 -4e-07 -5e-07
          -6e-07 -7e-07 -8e-07 -9e-07 -1e-06 4.80056e-30 -1e-07 -2e-07 -3e-07 -4e-07 -5e-07 -6e-07
          -7e-07 -8e-07 -9e-07 -1e-06 5.53508e-30 -1e-07 -2e-07 -3e-07 -4e-07 -5e-07 -6e-07 -7e-07
          -8e-07 -9e-07 -1e-06 -8.01983e-30 -1e-07 -2e-07 -3e-07 -4e-07 -5e-07 -6e-07 -7e-07 -8e-07
          -9e-07 -1e-06 4.45829e-30 -1e-07 -2e-07 -3e-07 -4e-07 -5e-07 -6e-07 -7e-07 -8e-07 -9e-07
          -1e-06 -7.36373e-30 -1e-07 -2e-07 -3e-07 -4e-07 -5e-07 -6e-07 -7e-07 -8e-07 -9e-07 -1e-06
          -1.73354e-29 -1e-07 -2e-07 -3e-07 -4e-07 -5e-07 -6e-07 -7e-07 -8e-07 -9e-07 -1e-06 1.51944e-30
          -1e-07 -2e-07 -3e-07 -4e-07 -5e-07 -6e-07 -7e-07 -8e-07 -9e-07 -1e-06 -3.97586e-30 -1e-07
          -2e-07 -3e-07 -4e-07 -5e-07 -6e-07 -7e-07 -8e-07 -9e-07 -1e-06 -1.0056e-29 -1e-07 -1.33152e-29
          -1e-07 -2e-07 -2e-07 -3e-07 -3e-07 -4e-07 -4e-07 -5e-07 -5e-07 -6e-07 -6e-07 -7e-07
          -7e-07 -8e-07 -8e-07 -9e-07 -9e-07 -1e-06 -1e-06 -5.17666e-30 -1e-07 -2e-07 -3e-07 -4e-07
          -5e-07 -6e-07 -7e-07 -8e-07 -9e-07 -1e-06 -1.56927e-30 -1e-07 -2e-07 -3e-07 -4e-07 -5e-07
          -6e-07 -7e-07 -8e-07 -9e-07 -1e-06 1.90753e-30 -1e-07 -2e-07 -3e-07 -4e-07 -5e-07 -6e-07
          -7e-07 -8e-07 -9e-07 -1e-06 -3.93589e-30 -1e-07 -2e-07 -3e-07 -4e-07 -5e-07 -6e-07 -7e-07
          -8e-07 -9e-07 -1e-06 -2.3213e-30 -1e-07 -2e-07 -3e-07 -4e-07 -5e-07 -6e-07 -7e-07 -8e-07
          -9e-07 -1e-06 -1.71264e-30 -1e-07 -2e-07 -3e-07 -4e-07 -5e-07 -6e-07 -7e-07 -8e-07 -9e-07
          -1e-06 4.41339e-30 -1e-07 -2e-07 -3e-07 -4e-07 -5e-07 -6e-07 -7e-07 -8e-07 -9e-07 -1e-06
          -7.02639e-31 -1e-07 -2e-07 -3e-07 -4e-07 -5e-07 -6e-07 -7e-07 -8e-07 -9e-07 -1e-06 5.59738e-31
          -1e-07 -2e-07 -3e-07 -4e-07 -5e-07 -6e-07 -7e-07 -8e-07 -9e-07 -1e-06 -3.37655e-33 -1e-07
          -6.40209e-33 -1e-07 -2e-07 -2e-07 -3e-07 -3e-07 -4e-07 -4e-07 -5e-07 -5e-07 -6e-07 -6e-07
          -7e-07 -7e-07 -8e-07 -8e-07 -9e-07 -9e-07 -1e-06 -1e-06 -1.53309e-32 -1e-07 -2e-07 -3e-07
          -4e-07 -5e-07 -6e-07 -7e-07 -8e-07 -9e-07 -1e-06 2.02064e-32 -1e-07 -2e-07 -3e-07 -4e-07
          -5e-07 -6e-07 -7e-07 -8e-07 -9e-07 -1e-06 4.0754e-33 -1e-07 -2e-07 -3e-07 -4e-07 -5e-07
          -6e-07 -7e-07 -8e-07 -9e-07 -1e-06 -7.04247e-33 -1e-07 -2e-07 -3e-07 -4e-07 -5e-07 -6e-07
          -7e-07 -8e-07 -9e-07 -1e-06 2.32845e-32 -1e-07 -2e-07 -3e-07 -4e-07 -5e-07 -6e-07 -7e-07
          -8e-07 -9e-07 -1e-06 6.67698e-33 -1e-07 -2e-07 -3e-07 -4e-07 -5e-07 -6e-07 -7e-07 -8e-07
          -9e-07 -1e-06 -8.54852e-33 -1e-07 -2e-07 -3e-07 -4e-07 -5e-07 -6e-07 -7e-07 -8e-07 -9e-07
          -1e-06 9.12462e-33 -1e-07 -2e-07 -3e-07 -4e-07 -5e-07 -6e-07 -7e-07 -8e-07 -9e-07 -1e-06
          -2.12727e-34 -1e-07 -2e-07 -3e-07 -4e-07 -5e-07 -6e-07 -7e-07 -8e-07 -9e-07 -1e-06
        </DataArray>
        <DataArray type="Float32" Name="uy" NumberOfComponents="1" format="ascii">
          0 2.7405e-32 0 0 0 -1.88981e-30 0 1.12181e-22 -2.18747e-32 0 1.1467e-30 1.382e-22
          -1.07283e-32 0 8.60802e-31 7.56934e-23 -7.80483e-33 0 8.61029e-33 8.79356e-23 -4.80833e-34 0 -1.06907e-30 1.22301e-22
          2.14761e-33 0 -1.16418e-30 1.26659e-22 -2.70502e-33 0 -1.13066e-30 1.48258e-22 -1.54035e-32 0 9.15827e-32 2.93043e-22
          -5.75374e-32 4.39184e-28 -1.29344e-30 1.90753e-22 -3.16295e-32 -5.22048e-32 4.44377e-31 3.73685e-31 0 0 0 2.12332e-22
          0 2.62506e-22 0 1.46714e-22 0 1.73337e-22 0 2.35588e-22 0 2.508e-22 0 2.94018e-22
          -6.00781e-25 5.78832e-22 -1.02826e-29 3.87724e-22 -8.14222e-30 1.60293e-30 0 0 0 2.82099e-22 0 3.54085e-22
          0 2.08229e-22 0 2.40171e-22 0 3.14948e-22 0 3.49949e-22 0 4.13285e-22 -2.73132e-28 7.99314e-22
          6.56837e-29 5.59421e-22 -4.5427e-29 1.55649e-31 0 0 0 3.14114e-22 0 4.03596e-22 0 2.55574e-22
          0 2.80855e-22 0 3.51487e-22 0 4.04121e-22 0 4.92372e-22 1.49284e-26 9.37253e-22 2.29691e-29 6.89317e-22
          -9.18728e-30 -2.30467e-30 0 0 0 3.15061e-22 0 4.16922e-22 0 2.84695e-22 0 2.98451e-22
          0 3.48849e-22 0 4.17196e-22 7.38221e-25 5.32502e-22 5.27176e-27 9.901e-22 1.02025e-30 7.6569e-22 -1.72746e-29 -2.92408e-31
          0 0 0 2.90861e-22 0 3.93696e-22 0 2.89215e-22 0 2.91937e-22 0 3.17057e-22
          0 3.96713e-22 1.95793e-25 5.23115e-22 1.65579e-27 9.6468e-22 -2.42401e-29 7.77767e-22 -8.23072e-30 -9.58151e-31 0 0
          -9.25857e-31 2.44091e-22 0 3.36294e-22 0 2.63695e-22 0 2.58649e-22 0 2.5911e-22 0 3.37636e-22
          -1.64617e-26 4.65438e-22 -8.52446e-28 8.51583e-22 1.18687e-29 7.06277e-22 1.76516e-29 1.72953e-30 0 0 -1.89469e-30 1.77853e-22
          0 2.4701e-22 0 2.04282e-22 0 1.95828e-22 0 1.84749e-22 0 2.45277e-22 -3.00299e-25 3.54814e-22
          2.25832e-27 6.45451e-22 -2.63034e-29 5.44171e-22 -8.71069e-30 -4.42573e-31 0 0 1.56262e-30 9.2751e-23 0 1.2475e-22
          0 1.05533e-22 0 9.85536e-23 0 9.41498e-23 0 1.22917e-22 1.45658e-25 1.82713e-22 -2.91496e-28 3.34908e-22
          2.99448e-30 2.83317e-22 -2.9611e-30 4.51898e-31 0 9.32078e-33 3.49565e-32 -2.70869e-32 9.83279e-33 -2.48496e-32 2.59998e-33 -6.8077e-33
          -1.09223e-34 -4.12212e-32 -1.48818e-33 -2.06021e-33 -4.16614e-33 3.15048e-32 1.08826e-33 3.27187e-32 -1.88283e-32 1.23082e-31 -2.13373e-32 -9.5012e-33
          2.91588e-32 1.53691e-31 -4.28507e-30 -2.75272e-31 -1.54334e-30 1.86517e-22 1.83405e-30 2.09939e-22 6.47351e-31 1.75411e-22 4.13669e-31 1.19848e-22
          -3.80237e-32 8.35629e-23 1.19503e-31 4.58162e-23 -2.14224e-31 1.73907e-23 1.38398e-30 2.98166e-23 1.08388e-30 -1.86638e-24 5.30536e-32 3.10682e-31
          -1.52913e-30 3.68197e-22 4.07548e-22 3.31443e-22 2.31943e-22 1.73064e-22 9.74458e-23 2.83089e-23 5.27259e-23 -1.83173e-23 3.00113e-30 -8.67774e-31
          5.02494e-22 5.49779e-22 4.37946e-22 3.11509e-22 2.43908e-22 1.39929e-22 2.84927e-23 6.53877e-23 -4.22693e-23 -8.83256e-31 1.16233e-31 5.74271e-22
          6.23123e-22 4.8648e-22 3.49967e-22 2.82762e-22 1.62747e-22 1.83874e-23 6.63421e-23 -6.92776e-23 1.1363e-30 -2.47383e-30 5.90773e-22 6.36788e-22
          4.83031e-22 3.53881e-22 2.95228e-22 1.70344e-22 4.43281e-24 5.67058e-23 -8.9704e-23 3.48608e-30 -1.00967e-30 5.56249e-22 5.9427e-22 4.38768e-22
          3.25223e-22 2.83321e-22 1.58801e-22 -1.1055e-23 4.37922e-23 -9.99834e-23 -9.87614e-31 -2.43045e-30 4.74857e-22 5.03583e-22 3.62947e-22 2.71865e-22
          2.46535e-22 1.30855e-22 -2.24499e-23 2.90036e-23 -9.40296e-23 7.38042e-31 2.42215e-30 3.49695e-22 3.68072e-22 2.6078e-22 1.95712e-22 1.82261e-22
          9.45877e-23 -3.02932e-23 1.50938e-23 -7.77273e-23 2.91075e-30 -1.63185e-30 1.83321e-22 1.93811e-22 1.36941e-22 1.02449e-22 9.18754e-23 4.76363e-23
          -2.27598e-23 6.62709e-24 -4.80015e-23 -1.64786e-30 4.68483e-33 -3.01375e-32 2.57757e-32 8.73082e-33 8.70011e-33 1.18127e-32 4.33361e-33 1.07041e-31
          -7.11968e-32 9.51007e-34 8.19746e-32 1.41274e-30 1.07773e-30 -2.10245e-31 7.21733e-23 3.67765e-31 1.676e-24 9.7594e-33 -1.14492e-23 -8.6166e-31
          -2.60249e-23 -6.70303e-31 -1.2835e-23 3.87304e-32 -1.88671e-23 2.11873e-31 6.7031e-23 1.41929e-30 9.28308e-23 2.19055e-30 2.2627e-22 -4.55426e-30
          -7.99141e-33 -1.34275e-30 1.41229e-22 -2.6829e-24 -2.00919e-23 -4.70285e-23 -2.21862e-23 -3.97422e-23 1.3894e-22 1.85844e-22 4.61383e-22 4.60048e-30
          9.06857e-31 1.89763e-22 -3.38997e-24 -1.99124e-23 -5.97564e-23 -3.086e-23 -5.04691e-23 2.07832e-22 2.64645e-22 6.51203e-22 -1.95748e-31 1.60416e-30
          2.12251e-22 3.85244e-24 -1.34024e-23 -6.06976e-23 -3.78446e-23 -4.48711e-23 2.63222e-22 3.13849e-22 7.64244e-22 7.59734e-31 -1.39865e-30 2.13527e-22
          1.20665e-23 -3.54637e-24 -5.96859e-23 -4.02524e-23 -3.3922e-23 2.92025e-22 3.41039e-22 8.00606e-22 6.47027e-30 -6.10266e-31 1.98304e-22 1.92909e-23
          2.88572e-24 -5.47938e-23 -3.77727e-23 -1.92078e-23 2.89481e-22 3.3644e-22 7.62075e-22 -1.3683e-30 -1.80691e-30 1.67486e-22 2.22919e-23 5.79961e-24
          -4.48985e-23 -3.53479e-23 -5.33196e-24 2.58594e-22 2.97136e-22 6.5308e-22 1.80286e-30 -1.81368e-30 1.22052e-22 2.03177e-23 2.59463e-24 -3.17821e-23
          -2.82876e-23 3.76208e-25 1.99784e-22 2.23392e-22 4.81594e-22 -3.0905e-32 1.1266e-30 6.14396e-23 1.21217e-23 -1.17468e-24 -1.98377e-23 -1.72249e-23
          -1.53517e-24 1.05989e-22 1.18485e-22 2.46766e-22 3.80497e-31 -6.11627e-31 3.12869e-33 6.70529e-33 7.82862e-33 -3.39134e-32 -9.34421e-32 -7.17865e-32
          2.22026e-31 -8.67198e-32 -1.55062e-31 -2.45674e-30 -1.14988e-30 6.52468e-31 1.06907e-31 2.10815e-22 1.19442e-30 2.25658e-22 7.99321e-31 1.89831e-22
          5.38283e-31 1.23281e-22 -1.46456e-31 5.92731e-23 -4.35619e-31 1.70457e-23 5.09396e-31 -7.16662e-23 -2.0446e-31 -3.83081e-23 -1.53498e-30 -2.15817e-22
          2.49685e-30 2.77392e-31 2.433e-31 4.12233e-22 4.38964e-22 3.79014e-22 2.42213e-22 1.12273e-22 3.13163e-23 -1.32231e-22 -6.28866e-23 -4.06583e-22
          -8.4045e-31 4.94596e-31 5.59487e-22 5.9154e-22 5.14055e-22 3.29526e-22 1.53617e-22 3.65838e-23 -1.81793e-22 -8.79625e-23 -5.3233e-22 1.5578e-30
          1.15251e-30 6.36109e-22 6.622e-22 5.79259e-22 3.71722e-22 1.77217e-22 3.11204e-23 -2.1611e-22 -1.14888e-22 -5.84076e-22 4.67855e-31 9.09699e-31
          6.53866e-22 6.66629e-22 5.85327e-22 3.77654e-22 1.79098e-22 1.93015e-23 -2.29852e-22 -1.42482e-22 -5.76662e-22 5.81852e-31 -1.58723e-32 6.1603e-22
          6.13287e-22 5.42982e-22 3.51647e-22 1.63864e-22 3.66735e-24 -2.18989e-22 -1.60391e-22 -5.18101e-22 6.11334e-31 2.21568e-30 5.26095e-22 5.12982e-22
          4.58141e-22 2.93671e-22 1.35777e-22 -6.55178e-24 -1.92001e-22 -1.55732e-22 -4.22876e-22 -1.11626e-30 2.65741e-30 3.89451e-22 3.72853e-22 3.33536e-22
          2.12116e-22 1.00073e-22 -1.33027e-23 -1.45456e-22 -1.28796e-22 -3.01948e-22 -1.5875e-30 1.74677e-30 2.08512e-22 1.93631e-22 1.7236e-22 1.12175e-22
          5.49528e-23 -1.11075e-23 -8.13197e-23 -7.94744e-23 -1.61802e-22 1.77111e-31 2.96324e-31 -6.20381e-32 -3.53022e-32 -5.92445e-32 4.11146e-32 4.32249e-33
          1.45653e-32 -1.0871e-31 -7.67754e-32 4.42174e-32 -1.12886e-30 -1.02952e-30 8.96739e-31 -1.3178e-30 4.93652e-23 4.29837e-31 6.16037e-24 -1.69307e-31
          -8.87488e-23 5.54492e-31 -1.34232e-22 1.38567e-30 -1.3734e-22 -9.04254e-32 -1.13733e-22 -5.72553e-31 -3.20136e-23 5.27683e-31 2.9105e-23 -4.20013e-30
          2.70207e-23 8.96009e-31 1.27841e-30 -2.49162e-30 9.50427e-23 1.3694e-23 -1.75606e-22 -2.60315e-22 -2.65558e-22 -2.10666e-22 -5.74625e-23 7.3115e-23
          4.62614e-23 -3.24957e-30 -7.38509e-31 1.2568e-22 2.1774e-23 -2.37197e-22 -3.43297e-22 -3.57885e-22 -2.6982e-22 -6.84735e-23 1.10482e-22 5.41247e-23
          3.45591e-31 1.90399e-30 1.40126e-22 2.55342e-23 -2.64304e-22 -3.80053e-22 -4.02458e-22 -2.90753e-22 -6.66915e-23 1.37903e-22 5.36228e-23 1.55487e-30
          -3.62468e-31 1.38848e-22 2.67123e-23 -2.64496e-22 -3.79933e-22 -4.06556e-22 -2.82202e-22 -6.32229e-23 1.55375e-22 4.44642e-23 -3.20886e-30 1.93206e-30
          1.27272e-22 2.63562e-23 -2.40205e-22 -3.4684e-22 -3.78277e-22 -2.50512e-22 -5.64947e-23 1.56904e-22 3.24248e-23 -1.9251e-30 2.54358e-30 1.0488e-22
          2.27784e-23 -1.99176e-22 -2.86841e-22 -3.22964e-22 -2.02173e-22 -4.70276e-23 1.42359e-22 1.76806e-23 1.29061e-31 -1.6441e-30 7.53326e-23 1.54808e-23
          -1.42915e-22 -2.05256e-22 -2.4211e-22 -1.43994e-22 -3.48527e-23 1.06079e-22 4.57816e-24 1.17562e-31 -5.94525e-31 3.83188e-23 5.58197e-24 -7.52814e-23
          -1.08146e-22 -1.32693e-22 -7.58117e-23 -2.40801e-23 5.40482e-23 -6.97854e-24 -7.22014e-31 2.70509e-31 7.26356e-32 -4.90138e-32 9.70687e-32 -1.74973e-35
          -4.10242e-32 -1.52689e-31 1.22898e-31 -6.27199e-32 7.88005e-32 2.82676e-31 -1.43269e-30 5.11289e-32 -2.29979e-32 2.60733e-22 -4.36557e-31 2.12227e-22
          -7.15219e-31 2.0485e-22 -9.7171e-31 1.15988e-22 2.36843e-31 3.75229e-23 1.39577e-31 -8.48388e-23 8.60787e-31 -1.04548e-22 -4.78759e-31 -2.29559e-22
          7.55092e-31 -2.71552e-22 2.14785e-30 -8.6243e-31 4.02499e-32 5.11923e-22 4.11255e-22 3.91314e-22 2.29083e-22 7.98547e-23 -1.62018e-22 -2.0122e-22
          -4.50636e-22 -5.17919e-22 -7.10647e-31 1.9964e-31 6.98184e-22 5.55517e-22 5.20614e-22 3.12379e-22 1.11951e-22 -2.1421e-22 -2.76242e-22 -6.11828e-22
          -6.81819e-22 3.754e-31 -3.01485e-31 7.93656e-22 6.34379e-22 5.80431e-22 3.50198e-22 1.3111e-22 -2.41111e-22 -3.18258e-22 -6.95933e-22 -7.50169e-22
          6.54805e-31 -1.5321e-31 8.11862e-22 6.53116e-22 5.82015e-22 3.47374e-22 1.41016e-22 -2.47989e-22 -3.33922e-22 -7.13225e-22 -7.42715e-22 4.13829e-31
          -2.76574e-31 7.63262e-22 6.14377e-22 5.31782e-22 3.13658e-22 1.36897e-22 -2.3414e-22 -3.19902e-22 -6.7953e-22 -6.70044e-22 2.34714e-31 1.2571e-31
          6.51141e-22 5.23193e-22 4.39672e-22 2.58959e-22 1.21761e-22 -1.99774e-22 -2.82672e-22 -5.8554e-22 -5.52772e-22 -1.4636e-31 9.16264e-31 4.81348e-22
          3.87221e-22 3.15243e-22 1.82936e-22 9.31569e-23 -1.47148e-22 -2.17272e-22 -4.30514e-22 -3.99936e-22 -9.60026e-31 1.42197e-31 2.51561e-22 2.07437e-22
          1.65616e-22 9.34691e-23 5.00018e-23 -7.70933e-23 -1.16175e-22 -2.23208e-22 -2.1093e-22 4.45869e-31 -1.0009e-32 -1.11548e-32 4.43327e-32 6.79134e-32
          1.66974e-33 -4.94561e-32 -1.22895e-31 -9.22815e-32 7.29587e-32 4.03458e-32 -6.30627e-32 -9.55629e-31 -5.37492e-31 4.32958e-32 6.2699e-23 8.75073e-32
          -1.84331e-23 3.3974e-31 -1.30678e-22 -2.97849e-30 -2.02396e-22 -2.52048e-30 -2.2086e-22 -1.59408e-30 -2.17906e-22 -7.71583e-31 -2.53866e-22 7.33344e-31
          -1.3322e-22 -2.43927e-31 -2.70225e-22 4.25781e-30 3.44744e-31 -3.7579e-31 1.2225e-22 -4.12312e-23 -2.47353e-22 -3.87012e-22 -4.28337e-22 -4.2446e-22
          -4.93953e-22 -2.49196e-22 -5.1093e-22 1.10432e-30 6.40203e-31 1.63591e-22 -6.10855e-23 -3.19325e-22 -5.11334e-22 -5.82608e-22 -5.71393e-22 -6.45035e-22
          -3.22353e-22 -6.73771e-22 6.523e-31 -5.8777e-31 1.84808e-22 -7.19276e-23 -3.41752e-22 -5.65725e-22 -6.69571e-22 -6.4487e-22 -6.9395e-22 -3.50572e-22
          -7.52167e-22 6.79374e-31 -1.28072e-30 1.86951e-22 -7.50112e-23 -3.29507e-22 -5.58425e-22 -6.98036e-22 -6.57571e-22 -6.69539e-22 -3.44619e-22 -7.58048e-22
          9.69358e-31 4.33855e-31 1.75624e-22 -7.21268e-23 -2.92356e-22 -5.06471e-22 -6.65915e-22 -6.21209e-22 -5.91912e-22 -3.06566e-22 -7.08114e-22 1.2317e-30
          -5.05163e-31 1.50672e-22 -6.21183e-23 -2.36346e-22 -4.18573e-22 -5.74024e-22 -5.33968e-22 -4.82553e-22 -2.44908e-22 -6.01662e-22 1.06377e-30 -1.45094e-31
          1.10492e-22 -4.66067e-23 -1.66102e-22 -3.02622e-22 -4.24849e-22 -3.96434e-22 -3.42765e-22 -1.6885e-22 -4.47822e-22 3.23157e-30 -1.0988e-31 5.91506e-23
          -2.57598e-23 -8.64541e-23 -1.58207e-22 -2.23392e-22 -2.10292e-22 -1.75546e-22 -9.1352e-23 -2.40697e-22 4.74061e-31 -3.94065e-32 -2.53512e-33 -6.27723e-33
          8.95635e-32 1.24719e-31 -2.00371e-31 2.82169e-32 -1.70001e-31 1.40099e-31 2.53026e-31 -3.98255e-31 -3.4308e-32 4.85013e-33 2.07817e-32 2.18342e-22
          2.53379e-31 2.08789e-22 -1.03278e-30 1.44402e-22 -4.4126e-31 8.04176e-23 -4.95118e-31 -2.61891e-23 -1.91001e-31 -1.17114e-22 -1.19585e-31 -1.73686e-22
          2.1262e-32 -2.64187e-22 2.3308e-32 -4.02984e-22 -9.01509e-31 2.02831e-31 -1.56374e-31 4.20473e-22 4.09145e-22 2.83218e-22 1.4962e-22 -5.0773e-23
          -2.16929e-22 -3.31673e-22 -5.04296e-22 -7.7477e-22 -5.29234e-31 -1.60542e-31 5.70737e-22 5.56209e-22 3.7602e-22 1.90071e-22 -6.3065e-23 -2.80282e-22
          -4.63884e-22 -6.86289e-22 -1.03527e-21 2.22962e-31 9.309e-31 6.47277e-22 6.33281e-22 4.12561e-22 1.95993e-22 -6.38157e-23 -3.06943e-22 -5.59712e-22
          -7.9669e-22 -1.16613e-21 -6.20463e-32 6.04475e-32 6.64453e-22 6.4403e-22 4.08307e-22 1.76025e-22 -5.89699e-23 -3.0212e-22 -6.08727e-22 -8.3835e-22
          -1.18048e-21 -4.56847e-31 -2.62674e-32 6.25496e-22 6.0028e-22 3.70308e-22 1.40812e-22 -5.18995e-23 -2.72996e-22 -6.09335e-22 -8.0928e-22 -1.09749e-21
          -4.09986e-31 1.51467e-31 5.3478e-22 5.06131e-22 3.06286e-22 9.83324e-23 -4.66094e-23 -2.23881e-22 -5.48774e-22 -7.02338e-22 -9.2576e-22 1.73889e-31
          1.51548e-31 3.93436e-22 3.66153e-22 2.18836e-22 5.90503e-23 -3.5559e-23 -1.60779e-22 -4.26828e-22 -5.23869e-22 -6.77979e-22 -4.92838e-31 -2.14933e-31
          2.07475e-22 1.86898e-22 1.09643e-22 2.66775e-23 -1.72881e-23 -8.55745e-23 -2.37412e-22 -2.77725e-22 -3.60279e-22 2.46371e-31 4.14098e-32 7.53593e-34
          4.18902e-32 -2.91193e-32 -1.83106e-32 1.67594e-32 -5.22091e-32 -5.70254e-32 -1.51851e-32 7.61028e-33 -4.5689e-31 -9.0401e-32 -6.43516e-32 2.34104e-32
          1.3126e-22 4.42623e-31 2.97412e-23 -1.07604e-30 -1.13171e-22 -5.76226e-31 -2.73021e-22 1.88483e-30 -3.44664e-22 2.61981e-30 -4.08097e-22 4.50946e-32
          -3.54324e-22 -5.98249e-31 -3.89907e-22 -9.62572e-31 -4.1318e-22 -2.76553e-30 3.49015e-31 1.88816e-31 2.54253e-22 5.5998e-23 -2.24421e-22 -5.24997e-22
          -6.56555e-22 -7.84682e-22 -6.76312e-22 -7.51046e-22 -7.69823e-22 -6.52794e-31 -4.85486e-32 3.44344e-22 7.5132e-23 -2.97389e-22 -6.84851e-22 -8.72958e-22
          -1.04871e-21 -8.83327e-22 -9.97076e-22 -1.02084e-21 -2.51642e-31 5.77076e-33 3.93301e-22 8.49658e-23 -3.23641e-22 -7.42351e-22 -9.73645e-22 -1.17809e-21
          -9.62062e-22 -1.1061e-21 -1.15277e-21 -1.19521e-30 1.95505e-32 4.05114e-22 8.92069e-23 -3.19675e-22 -7.27008e-22 -9.76734e-22 -1.20121e-21 -9.45203e-22
          -1.1086e-21 -1.1802e-21 4.00829e-32 -1.36729e-31 3.83145e-22 8.69633e-23 -2.92675e-22 -6.53747e-22 -9.01077e-22 -1.12564e-21 -8.55406e-22 -1.01881e-21
          -1.11743e-21 -8.58219e-32 -7.7406e-32 3.30072e-22 7.61191e-23 -2.45204e-22 -5.35836e-22 -7.54648e-22 -9.60426e-22 -7.03127e-22 -8.53246e-22 -9.6486e-22
          -1.49356e-30 5.30793e-33 2.44704e-22 5.92836e-23 -1.77313e-22 -3.80517e-22 -5.50491e-22 -7.07699e-22 -5.01501e-22 -6.18971e-22 -7.21431e-22 -9.45412e-31
          8.07764e-32 1.28333e-22 3.35412e-23 -9.05659e-23 -1.98092e-22 -2.89275e-22 -3.74625e-22 -2.56455e-22 -3.21725e-22 -3.86266e-22 -6.92494e-31 1.48577e-32
          -1.62555e-32 -8.17739e-32 1.38355e-31 4.19873e-32 7.90707e-32 1.97748e-33 9.40254e-32 -3.56355e-32 1.13125e-33 2.02205e-31 -1.69931e-33 -3.95846e-33
          0 4.09556e-32 1.75142e-32 4.25035e-31 5.87544e-32 -2.75296e-32 2.11385e-32 1.35574e-31 5.9618e-34 -1.65672e-31 5.1097e-33 -4.67604e-32
          2.55335e-33 6.75178e-32 -3.71658e-33 -3.69379e-32 1.75489e-32 1.42636e-31 3.62335e-33 3.23081e-33 0 -3.68663e-32 -1.07211e-31 3.39463e-32
          -2.95089e-32 1.22128e-31 7.20394e-32 -1.81963e-31 -5.68429e-33 -6.91901e-32 1.31937e-31 0 -1.43548e-32 -7.08203e-31 -5.99687e-32 1.99996e-31
          1.8795e-31 1.60908e-31 -4.88193e-32 -3.28959e-33 1.22932e-31 -2.40498e-31 0 -4.43645e-33 -2.33288e-31 -4.66403e-31 1.29388e-32 -1.79075e-31
          -2.50913e-31 -1.17617e-31 2.10265e-32 -1.18423e-31 -2.32957e-32 0 2.54737e-33 9.76998e-32 2.446e-31 3.4182e-31 -1.60911e-31 -2.89407e-31
          3.8911e-32 -7.41731e-33 2.88127e-32 -1.60738e-31 0 -1.35669e-32 1.22051e-30 -1.18953e-30 5.77664e-31 -1.23861e-31 -2.08784e-32 -4.49952e-31
          1.10477e-31 1.13947e-32 1.03379e-31 0 -6.2476e-32 2.04781e-31 1.41907e-31 1.9292e-31 -4.4377e-31 2.58296e-31 2.11422e-31 2.60645e-32
          -4.72134e-32 4.63534e-31 0 4.43401e-32 9.93856e-32 -2.50561e-31 -5.93506e-31 1.66295e-31 6.07697e-31 -3.73397e-31 -1.75201e-31 1.4422e-31
          -2.69358e-31 0 -3.8767e-33 6.33918e-31 -1.19242e-30 2.78865e-30 3.30724e-30 5.74805e-31 2.96301e-31 -2.78017e-31 1.69571e-31 2.39846e-31
          -9.67379e-35 -5.3262e-34 8.64239e-33 -1.25387e-32 -5.93681e-33 1.29734e-32 1.07671e-33 -5.24262e-34 1.61097e-33 3.86095e-33 7.89046e-33
        </DataArray>
        <DataArray type="Float32" Name="uz" NumberOfComponents="1" format="ascii">
          0 -8.10597e-20 0 -8.11284e-20 3e-08 3e-08 3e-08 3e-08 -9.43577e-20 -9.44341e-20 3e-08 3e-08
          -8.60309e-20 -8.61295e-20 3e-08 3e-08 -6.3936e-20 -6.40025e-20 3e-08 3e-08 -3.60094e-20 -3.60337e-20 3e-08 3e-08
          -8.3891e-21 -8.43168e-21 3e-08 3e-08 1.61188e-20 1.60387e-20 3e-08 3e-08 3.77314e-20 3.7654e-20 3e-08 3e-08
          5.68075e-20 5.66844e-20 3e-08 3e-08 7.90167e-20 7.90312e-20 3e-08 3e-08 0 -8.13304e-20 3e-08 3e-08
          -9.46685e-20 3e-08 -8.64188e-20 3e-08 -6.42026e-20 3e-08 -3.61112e-20 3e-08 -8.54677e-21 3e-08 1.58013e-20 3e-08
          3.74323e-20 3e-08 5.63092e-20 3e-08 7.9095e-20 3e-08 0 -8.15752e-20 3e-08 3e-08 -9.49208e-20 3e-08
          -8.66947e-20 3e-08 -6.44045e-20 3e-08 -3.62465e-20 3e-08 -8.69153e-21 3e-08 1.55751e-20 3e-08 3.72532e-20 3e-08
          5.5988e-20 3e-08 7.9085e-20 3e-08 0 -8.1789e-20 3e-08 3e-08 -9.50933e-20 3e-08 -8.67963e-20 3e-08
          -6.45186e-20 3e-08 -3.64273e-20 3e-08 -8.83281e-21 3e-08 1.54915e-20 3e-08 3.72409e-20 3e-08 5.59111e-20 3e-08
          7.89861e-20 3e-08 0 -8.19829e-20 3e-08 3e-08 -9.52117e-20 3e-08 -8.67976e-20 3e-08 -6.45781e-20 3e-08
          -3.66332e-20 3e-08 -8.96338e-21 3e-08 1.55041e-20 3e-08 3.7336e-20 3e-08 5.59933e-20 3e-08 7.88474e-20 3e-08
          0 -8.21567e-20 3e-08 3e-08 -9.53002e-20 3e-08 -8.67345e-20 3e-08 -6.46077e-20 3e-08 -3.684e-20 3e-08
          -9.08172e-21 3e-08 1.55704e-20 3e-08 3.7481e-20 3e-08 5.61648e-20 3e-08 7.86907e-20 3e-08 0 -8.23056e-20
          3e-08 3e-08 -9.53771e-20 3e-08 -8.66571e-20 3e-08 -6.46247e-20 3e-08 -3.70307e-20 3e-08 -9.1842e-21 3e-08
          1.56557e-20 3e-08 3.76113e-20 3e-08 5.63634e-20 3e-08 7.85195e-20 3e-08 0 -8.24348e-20 3e-08 3e-08
          -9.54519e-20 3e-08 -8.6598e-20 3e-08 -6.46478e-20 3e-08 -3.7205e-20 3e-08 -9.2872e-21 3e-08 1.5724e-20 3e-08
          3.76809e-20 3e-08 5.65272e-20 3e-08 7.83187e-20 3e-08 0 -8.25488e-20 3e-08 3e-08 -9.55395e-20 3e-08
          -8.65909e-20 3e-08 -6.46952e-20 3e-08 -3.73519e-20 3e-08 -9.38574e-21 3e-08 1.57418e-20 3e-08 3.76704e-20 3e-08
          5.65987e-20 3e-08 7.80897e-20 3e-08 0 -8.26466e-20 3e-08 3e-08 -9.56172e-20 3e-08 -8.66013e-20 3e-08
          -6.47442e-20 3e-08 -3.7462e-20 3e-08 -9.45908e-21 3e-08 1.57563e-20 3e-08 3.76841e-20 3e-08 5.66288e-20 3e-08
          7.79616e-20 3e-08 6e-08 6e-08 6e-08 6e-08 6e-08 6e-08 6e-08 6e-08 6e-08 6e-08
          6e-08 6e-08 6e-08 6e-08 6e-08 6e-08 6e-08 6e-08 6e-08 6e-08 6e-08 6e-08
          6e-08 6e-08 6e-08 6e-08 6e-08 6e-08 6e-08 6e-08 6e-08 6e-08 6e-08 6e-08
          6e-08 6e-08 6e-08 6e-08 6e-08 6e-08 6e-08 6e-08 6e-08 6e-08 6e-08 6e-08
          6e-08 6e-08 6e-08 6e-08 6e-08 6e-08 6e-08 6e-08 6e-08 6e-08 6e-08 6e-08
          6e-08 6e-08 6e-08 6e-08 6e-08 6e-08 6e-08 6e-08 6e-08 6e-08 6e-08 6e-08
          6e-08 6e-08 6e-08 6e-08 6e-08 6e-08 6e-08 6e-08 6e-08 6e-08 6e-08 6e-08
          6e-08 6e-08 6e-08 6e-08 6e-08 6e-08 6e-08 6e-08 6e-08 6e-08 6e-08 6e-08
          6e-08 6e-08 6e-08 6e-08 6e-08 6e-08 6e-08 6e-08 6e-08 6e-08 6e-08 6e-08
          6e-08 6e-08 6e-08 6e-08 6e-08 6e-08 6e-08 6e-08 6e-08 6e-08 6e-08 6e-08
          6e-08 6e-08 6e-08 9e-08 9e-08 9e-08 9e-08 9e-08 9e-08 9e-08 9e-08 9e-08
          9e-08 9e-08 9e-08 9e-08 9e-08 9e-08 9e-08 9e-08 9e-08 9e-08 9e-08 9e-08
          9e-08 9e-08 9e-08 9e-08 9e-08 9e-08 9e-08 9e-08 9e-08 9e-08 9e-08 9e-08
          9e-08 9e-08 9e-08 9e-08 9e-08 9e-08 9e-08 9e-08 9e-08 9e-08 9e-08 9e-08
          9e-08 9e-08 9e-08 9e-08 9e-08 9e-08 9e-08 9e-08 9e-08 9e-08 9e-08 9e-08
          9e-08 9e-08 9e-08 9e-08 9e-08 9e-08 9e-08 9e-08 9e-08 9e-08 9e-08 9e-08
          9e-08 9e-08 9e-08 9e-08 9e-08 9e-08 9e-08 9e-08 9e-08 9e-08 9e-08 9e-08
          9e-08 9e-08 9e-08 9e-08 9e-08 9e-08 9e-08 9e-08 9e-08 9e-08 9e-08 9e-08
          9e-08 9e-08 9e-08 9e-08 9e-08 9e-08 9e-08 9e-08 9e-08 9e-08 9e-08 9e-08
          9e-08 9e-08 9e-08 9e-08 9e-08 9e-08 9e-08 9e-08 9e-08 9e-08 9e-08 9e-08
          9e-08 9e-08 9e-08 9e-08 1.2e-07 1.2e-07 1.2e-07 1.2e-07 1.2e-07 1.2e-07 1.2e-07 1.2e-07
          1.2e-07 1.2e-07 1.2e-07 1.2e-07 1.2e-07 1.2e-07 1.2e-07 1.2e-07 1.2e-07 1.2e-07 1.2e-07 1.2e-07
          1.2e-07 1.2e-07 1.2e-07 1.2e-07 1.2e-07 1.2e-07 1.2e-07 1.2e-07 1.2e-07 1.2e-07 1.2e-07 1.2e-07
          1.2e-07 1.2e-07 1.2e-07 1.2e-07 1.2e-07 1.2e-07 1.2e-07 1.2e-07 1.2e-07 1.2e-07 1.2e-07 1.2e-07
          1.2e-07 1.2e-07 1.2e-07 1.2e-07 1.2e-07 1.2e-07 1.2e-07 1.2e-07 1.2e-07 1.2e-07 1.2e-07 1.2e-07
          1.2e-07 1.2e-07 1.2e-07 1.2e-07 1.2e-07 1.2e-07 1.2e-07 1.2e-07 1.2e-07 1.2e-07 1.2e-07 1.2e-07
          1.2e-07 1.2e-07 1.2e-07 1.2e-07 1.2e-07 1.2e-07 1.2e-07 1.2e-07 1.2e-07 1.2e-07 1.2e-07 1.2e-07
          1.2e-07 1.2e-07 1.2e-07 1.2e-07 1.2e-07 1.2e-07 1.2e-07 1.2e-07 1.2e-07 1.2e-07 1.2e-07 1.2e-07
          1.2e-07 1.2e-07 1.2e-07 1.2e-07 1.2e-07 1.2e-07 1.2e-07 1.2e-07 1.2e-07 1.2e-07 1.2e-07 1.2e-07
          1.2e-07 1.2e-07 1.2e-07 1.2e-07 1.2e-07 1.2e-07 1.2e-07 1.2e-07 1.2e-07 1.2e-07 1.2e-07 1.2e-07
          1.2e-07 1.2e-07 1.2e-07 1.2e-07 1.2e-07 1.5e-07 1.5e-07 1.5e-07 1.5e-07 1.5e-07 1.5e-07 1.5e-07
          1.5e-07 1.5e-07 1.5e-07 1.5e-07 1.5e-07 1.5e-07 1.5e-07 1.5e-07 1.5e-07 1.5e-07 1.5e-07 1.5e-07
          1.5e-07 1.5e-07 1.5e-07 1.5e-07 1.5e-07 1.5e-07 1.5e-07 1.5e-07 1.5e-07 1.5e-07 1.5e-07 1.5e-07
          1.5e-07 1.5e-07 1.5e-07 1.5e-07 1.5e-07 1.5e-07 1.5e-07 1.5e-07 1.5e-07 1.5e-07 1.5e-07 1.5e-07
          1.5e-07 1.5e-07 1.5e-07 1.5e-07 1.5e-07 1.5e-07 1.5e-07 1.5e-07 1.5e-07 1.5e-07 1.5e-07 1.5e-07
          1.5e-07 1.5e-07 1.5e-07 1.5e-07 1.5e-07 1.5e-07 1.5e-07 1.5e-07 1.5e-07 1.5e-07 1.5e-07 1.5e-07
          1.5e-07 1.5e-07 1.5e-07 1.5e-07 1.5e-07 1.5e-07 1.5e-07 1.5e-07 1.5e-07 1.5e-07 1.5e-07 1.5e-07
          1.5e-07 1.5e-07 1.5e-07 1.5e-07 1.5e-07 1.5e-07 1.5e-07 1.5e-07 1.5e-07 1.5e-07 1.5e-07 1.5e-07
          1.5e-07 1.5e-07 1.5e-07 1.5e-07 1.5e-07 1.5e-07 1.5e-07 1.5e-07 1.5e-07 1.5e-07 1.5e-07 1.5e-07
          1.5e-07 1.5e-07 1.5e-07 1.5e-07 1.5e-07 1.5e-07 1.5e-07 1.5e-07 1.5e-07 1.5e-07 1.5e-07 1.5e-07
          1.5e-07 1.5e-07 1.5e-07 1.5e-07 1.5e-07 1.5e-07 1.8e-07 1.8e-07 1.8e-07 1.8e-07 1.8e-07 1.8e-07
          1.8e-07 1.8e-07 1.8e-07 1.8e-07 1.8e-07 1.8e-07 1.8e-07 1.8e-07 1.8e-07 1.8e-07 1.8e-07 1.8e-07
          1.8e-07 1.8e-07 1.8e-07 1.8e-07 1.8e-07 1.8e-07 1.8e-07 1.8e-07 1.8e-07 1.8e-07 1.8e-07 1.8e-07
          1.8e-07 1.8e-07 1.8e-07 1.8e-07 1.8e-07 1.8e-07 1.8e-07 1.8e-07 1.8e-07 1.8e-07 1.8e-07 1.8e-07
          1.8e-07 1.8e-07 1.8e-07 1.8e-07 1.8e-07 1.8e-07 1.8e-07 1.8e-07 1.8e-07 1.8e-07 1.8e-07 1.8e-07
          1.8e-07 1.8e-07 1.8e-07 1.8e-07 1.8e-07 1.8e-07 1.8e-07 1.8e-07 1.8e-07 1.8e-07 1.8e-07 1.8e-07
          1.8e-07 1.8e-07 1.8e-07 1.8e-07 1.8e-07 1.8e-07 1.8e-07 1.8e-07 1.8e-07 1.8e-07 1.8e-07 1.8e-07
          1.8e-07 1.8e-07 1.8e-07 1.8e-07 1.8e-07 1.8e-07 1.8e-07 1.8e-07 1.8e-07 1.8e-07 1.8e-07 1.8e-07
          1.8e-07 1.8e-07 1.8e-07 1.8e-07 1.8e-07 1.8e-07 1.8e-07 1.8e-07 1.8e-07 1.8e-07 1.8e-07 1.8e-07
          1.8e-07 1.8e-07 1.8e-07 1.8e-07 1.8e-07 1.8e-07 1.8e-07 1.8e-07 1.8e-07 1.8e-07 1.8e-07 1.8e-07
          1.8e-07 1.8e-07 1.8e-07 1.8e-07 1.8e-07 1.8e-07 1.8e-07 2.1e-07 2.1e-07 2.1e-07 2.1e-07 2.1e-07
          2.1e-07 2.1e-07 2.1e-07 2.1e-07 2.1e-07 2.1e-07 2.1e-07 2.1e-07 2.1e-07 2.1e-07 2.1e-07 2.1e-07
          2.1e-07 2.1e-07 2.1e-07 2.1e-07 2.1e-07 2.1e-07 2.1e-07 2.1e-07 2.1e-07 2.1e-07 2.1e-07 2.1e-07
          2.1e-07 2.1e-07 2.1e-07 2.1e-07 2.1e-07 2.1e-07 2.1e-07 2.1e-07 2.1e-07 2.1e-07 2.1e-07 2.1e-07
          2.1e-07 2.1e-07 2.1e-07 2.1e-07 2.1e-07 2.1e-07 2.1e-07 2.1e-07 2.1e-07 2.1e-07 2.1e-07 2.1e-07
          2.1e-07 2.1e-07 2.1e-07 2.1e-07 2.1e-07 2.1e-07 2.1e-07 2.1e-07 2.1e-07 2.1e-07 2.1e-07 2.1e-07
          2.1e-07 2.1e-07 2.1e-07 2.1e-07 2.1e-07 2.1e-07 2.1e-07 2.1e-07 2.1e-07 2.1e-07 2.1e-07 2.1e-07
          2.1e-07 2.1e-07 2.1e-07 2.1e-07 2.1e-07 2.1e-07 2.1e-07 2.1e-07 2.1e-07 2.1e-07 2.1e-07 2.1e-07
          2.1e-07 2.1e-07 2.1e-07 2.1e-07 2.1e-07 2.1e-07 2.1e-07 2.1e-07 2.1e-07 2.1e-07 2.1e-07 2.1e-07
          2.1e-07 2.1e-07 2.1e-07 2.1e-07 2.1e-07 2.1e-07 2.1e-07 2.1e-07 2.1e-07 2.1e-07 2.1e-07 2.1e-07
          2.1e-07 2.1e-07 2.1e-07 2.1e-07 2.1e-07 2.1e-07 2.1e-07 2.1e-07 2.4e-07 2.4e-07 2.4e-07 2.4e-07
          2.4e-07 2.4e-07 2.4e-07 2.4e-07 2.4e-07 2.4e-07 2.4e-07 2.4e-07 2.4e-07 2.4e-07 2.4e-07 2.4e-07
          2.4e-07 2.4e-07 2.4e-07 2.4e-07 2.4e-07 2.4e-07 2.4e-07 2.4e-07 2.4e-07 2.4e-07 2.4e-07 2.4e-07
          2.4e-07 2.4e-07 2.4e-07 2.4e-07 2.4e-07 2.4e-07 2.4e-07 2.4e-07 2.4e-07 2.4e-07 2.4e-07 2.4e-07
          2.4e-07 2.4e-07 2.4e-07 2.4e-07 2.4e-07 2.4e-07 2.4e-07 2.4e-07 2.4e-07 2.4e-07 2.4e-07 2.4e-07
          2.4e-07 2.4e-07 2.4e-07 2.4e-07 2.4e-07 2.4e-07 2.4e-07 2.4e-07 2.4e-07 2.4e-07 2.4e-07 2.4e-07
          2.4e-07 2.4e-07 2.4e-07 2.4e-07 2.4e-07 2.4e-07 2.4e-07 2.4e-07 2.4e-07 2.4e-07 2.4e-07 2.4e-07
          2.4e-07 2.4e-07 2.4e-07 2.4e-07 2.4e-07 2.4e-07 2.4e-07 2.4e-07 2.4e-07 2.4e-07 2.4e-07 2.4e-07
          2.4e-07 2.4e-07 2.4e-07 2.4e-07 2.4e-07 2.4e-07 2.4e-07 2.4e-07 2.4e-07 2.4e-07 2.4e-07 2.4e-07
          2.4e-07 2.4e-07 2.4e-07 2.4e-07 2.4e-07 2.4e-07 2.4e-07 2.4e-07 2.4e-07 2.4e-07 2.4e-07 2.4e-07
          2.4e-07 2.4e-07 2.4e-07 2.4e-07 2.4e-07 2.4e-07 2.4e-07 2.4e-07 2.4e-07 2.7e-07 2.7e-07 2.7e-07
          2.7e-07 2.7e-07 2.7e-07 2.7e-07 2.7e-07 2.7e-07 2.7e-07 2.7e-07 2.7e-07 2.7e-07 2.7e-07 2.7e-07
          2.7e-07 2.7e-07 2.7e-07 2.7e-07 2.7e-07 2.7e-07 2.7e-07 2.7e-07 2.7e-07 2.7e-07 2.7e-07 2.7e-07
          2.7e-07 2.7e-07 2.7e-07 2.7e-07 2.7e-07 2.7e-07 2.7e-07 2.7e-07 2.7e-07 2.7e-07 2.7e-07 2.7e-07
          2.7e-07 2.7e-07 2.7e-07 2.7e-07 2.7e-07 2.7e-07 2.7e-07 2.7e-07 2.7e-07 2.7e-07 2.7e-07 2.7e-07
          2.7e-07 2.7e-07 2.7e-07 2.7e-07 2.7e-07 2.7e-07 2.7e-07 2.7e-07 2.7e-07 2.7e-07 2.7e-07 2.7e-07
          2.7e-07 2.7e-07 2.7e-07 2.7e-07 2.7e-07 2.7e-07 2.7e-07 2.7e-07 2.7e-07 2.7e-07 2.7e-07 2.7e-07
          2.7e-07 2.7e-07 2.7e-07 2.7e-07 2.7e-07 2.7e-07 2.7e-07 2.7e-07 2.7e-07 2.7e-07 2.7e-07 2.7e-07
          2.7e-07 2.7e-07 2.7e-07 2.7e-07 2.7e-07 2.7e-07 2.7e-07 2.7e-07 2.7e-07 2.7e-07 2.7e-07 2.7e-07
          2.7e-07 2.7e-07 2.7e-07 2.7e-07 2.7e-07 2.7e-07 2.7e-07 2.7e-07 2.7e-07 2.7e-07 2.7e-07 2.7e-07
          2.7e-07 2.7e-07 2.7e-07 2.7e-07 2.7e-07 2.7e-07 2.7e-07 2.7e-07 2.7e-07 2.7e-07 3e-07 3e-07
          3e-07 3e-07 3e-07 3e-07 3e-07 3e-07 3e-07 3e-07 3e-07 3e-07 3e-07 3e-07
          3e-07 3e-07 3e-07 3e-07 3e-07 3e-07 3e-07 3e-07 3e-07 3e-07 3e-07 3e-07
          3e-07 3e-07 3e-07 3e-07 3e-07 3e-07 3e-07 3e-07 3e-07 3e-07 3e-07 3e-07
          3e-07 3e-07 3e-07 3e-07 3e-07 3e-07 3e-07 3e-07 3e-07 3e-07 3e-07 3e-07
          3e-07 3e-07 3e-07 3e-07 3e-07 3e-07 3e-07 3e-07 3e-07 3e-07 3e-07 3e-07
          3e-07 3e-07 3e-07 3e-07 3e-07 3e-07 3e-07 3e-07 3e-07 3e-07 3e-07 3e-07
          3e-07 3e-07 3e-07 3e-07 3e-07 3e-07 3e-07 3e-07 3e-07 3e-07 3e-07 3e-07
          3e-07 3e-07 3e-07 3e-07 3e-07 3e-07 3e-07 3e-07 3e-07 3e-07 3e-07 3e-07
          3e-07 3e-07 3e-07 3e-07 3e-07 3e-07 3e-07 3e-07 3e-07 3e-07 3e-07 3e-07
          3e-07 3e-07 3e-07 3e-07 3e-07 3e-07 3e-07 3e-07 3e-07 3e-07 3e-07
        </DataArray>
      </PointData>
      <CellData Vectors="stress X">
        <DataArray type="Float32" Name="stress X" NumberOfComponents="3" format="ascii">
          -810 2.12701e-14 -1.3915e-10 -810 -3.70915e-13 -1.53033e-11 -810 -9.20383e-13 1.45441e-11 -810 -1.97605e-12 2.38433e-11
          -810 -2.83296e-12 2.28032e-11 -810 -2.77606e-12 1.59642e-11 -810 -3.0543e-12 8.11206e-12 -810 -4.70891e-12 -8.99559e-15
          -810 -3.62367e-12 -8.85424e-12 -810 -2.92239e-12 -1.54956e-11 -810 -5.40782e-13 -1.39323e-10 -810 -1.83545e-12 -1.52938e-11
          -810 -2.91305e-12 1.4602e-11 -810 -4.6163e-12 2.42194e-11 -810 -5.90971e-12 2.33195e-11 -810 -7.42333e-12 1.61234e-11
          -810 -8.89817e-12 8.05054e-12 -810 -9.41913e-12 5.46146e-13 -810 -8.79581e-12 -8.40808e-12 -810 -8.42773e-12 -1.4539e-11
          -810 -3.50478e-13 -1.396e-10 -810 -1.58921e-12 -1.52366e-11 -810 -3.66378e-12 1.47355e-11 -810 -5.13092e-12 2.4656e-11
          -810 -5.78675e-12 2.39086e-11 -810 -7.13565e-12 1.65197e-11 -810 -1.00845e-11 8.2747e-12 -810 -1.03764e-11 1.37436e-12
          -810 -1.01696e-11 -7.91932e-12 -810 -9.71008e-12 -1.30208e-11 -810 -3.92221e-14 -1.39902e-10 -810 -1.25533e-12 -1.50827e-11
          -810 -1.78213e-12 1.49725e-11 -810 -2.74964e-12 2.52132e-11 -810 -4.21875e-12 2.45809e-11 -810 -4.35473e-12 1.68541e-11
          -810 -6.76845e-12 8.66203e-12 -810 -9.14416e-12 2.22625e-12 -810 -8.67739e-12 -7.25344e-12 -810 -6.60109e-12 -1.07043e-11
          -810 2.1711e-13 -1.40153e-10 -810 -2.93244e-13 -1.49036e-11 -810 -1.41456e-12 1.52633e-11 -810 -2.23389e-12 2.57704e-11
          -810 -2.70179e-12 2.50071e-11 -810 -1.9342e-12 1.74048e-11 -810 -4.08194e-12 9.2486e-12 -810 -4.85586e-12 2.96141e-12
          -810 -6.60114e-12 -6.27778e-12 -810 -8.18516e-12 -8.83822e-12 -810 2.69153e-13 -1.40378e-10 -810 -4.50018e-14 -1.4698e-11
          -810 -5.21638e-13 1.55448e-11 -810 -9.80258e-13 2.61078e-11 -810 -1.46537e-12 2.52293e-11 -810 -1.5963e-12 1.78193e-11
          -810 -2.62382e-12 9.72258e-12 -810 -2.95268e-12 3.55956e-12 -810 -5.3907e-12 -5.33469e-12 -810 -5.97509e-12 -6.61145e-12
          -810 3.41657e-13 -1.40555e-10 -810 6.68694e-14 -1.45208e-11 -810 -1.36962e-14 1.58852e-11 -810 -1.47082e-12 2.64059e-11
          -810 -2.45574e-12 2.56709e-11 -810 -1.3372e-12 1.84751e-11 -810 -1.71504e-12 1.02144e-11 -810 -1.73516e-12 4.16816e-12
          -810 -2.26087e-12 -4.55849e-12 -810 -1.77478e-12 -5.0063e-12 -810 1.57639e-13 -1.40707e-10 -810 4.65128e-13 -1.42731e-11
          -810 -9.97305e-14 1.63179e-11 -810 -1.26744e-12 2.67971e-11 -810 -8.15291e-13 2.61458e-11 -810 1.3076e-13 1.91758e-11
          -810 -8.81024e-13 1.0943e-11 -810 -1.53035e-12 4.99472e-12 -810 -3.89071e-12 -3.29466e-12 -810 -5.41123e-12 -2.7055e-12
          -810 1.56631e-13 -1.4079e-10 -810 2.87626e-13 -1.39939e-11 -810 3.10883e-13 1.673e-11 -810 -9.11548e-13 2.71795e-11
          -810 -1.56009e-12 2.65385e-11 -810 -2.07708e-12 1.99292e-11 -810 -2.30834e-12 1.17831e-11 -810 -1.91769e-12 5.76917e-12
          -810 -1.80872e-12 -2.18469e-12 -810 -3.8764e-12 -1.11163e-12 -810 -1.48812e-13 -1.40853e-10 -810 -4.52457e-13 -1.376e-11
          -810 -1.11291e-12 1.70686e-11 -810 -1.11696e-12 2.75446e-11 -810 -1.39297e-12 2.67673e-11 -810 -1.01075e-12 2.04923e-11
          -810 -1.64911e-12 1.23972e-11 -810 -3.14175e-12 6.36236e-12 -810 -4.00916e-12 -1.13737e-12 -810 -3.09769e-12 1.74742e-13
          -810 1.37997e-13 -5.37378e-11 -810 -5.84959e-13 -2.94673e-11 -810 -3.17621e-13 2.3891e-11 -810 -3.50128e-13 4.98052e-11
          -810 -8.61708e-13 5.71838e-11 -810 -1.73234e-12 5.23903e-11 -810 -1.76536e-12 3.80884e-11 -810 -1.44381e-12 2.11607e-11
          -810 -1.10633e-12 9.42076e-12 -810 -1.15195e-13 -2.14219e-12 -810 -1.24747e-13 -5.37771e-11 -810 -1.47073e-12 -2.9488e-11
          -810 -1.86444e-12 2.39754e-11 -810 -2.40325e-12 5.0056e-11 -810 -2.65912e-12 5.74367e-11 -810 -4.31875e-12 5.26525e-11
          -810 -6.01996e-12 3.83382e-11 -810 -5.15588e-12 2.13278e-11 -810 -5.00871e-12 9.4555e-12 -810 -7.32733e-12 -1.99537e-12
          -810 3.45554e-13 -5.38722e-11 -810 -7.76463e-13 -2.96317e-11 -810 -1.75994e-12 2.40455e-11 -810 -2.94456e-12 5.0312e-11
          -810 -2.29496e-12 5.77817e-11 -810 -3.39253e-12 5.27704e-11 -810 -4.76714e-12 3.84325e-11 -810 -4.21544e-12 2.11463e-11
          -810 -7.39236e-12 9.50389e-12 -810 -5.48242e-12 -1.97303e-12 -810 6.59163e-13 -5.39522e-11 -810 -5.67802e-13 -2.9758e-11
          -810 -2.54565e-13 2.41311e-11 -810 -8.71069e-15 5.06665e-11 -810 -2.08316e-12 5.80908e-11 -810 -2.06103e-12 5.28054e-11
          -810 -3.04277e-12 3.86384e-11 -810 -1.7484e-12 2.14405e-11 -810 -2.45415e-12 9.65113e-12 -810 -3.12929e-12 -2.15253e-12
          -810 9.51926e-13 -5.40186e-11 -810 -3.08121e-13 -2.99464e-11 -810 -2.43227e-14 2.40315e-11 -810 8.62353e-13 5.09446e-11
          -810 8.30176e-13 5.85083e-11 -810 1.05585e-13 5.27532e-11 -810 -4.50612e-13 3.87679e-11 -810 7.5203e-13 2.17631e-11
          -810 -8.83419e-13 9.77459e-12 -810 3.38327e-14 -1.81401e-12 -810 1.05994e-12 -5.40618e-11 -810 3.75367e-13 -3.01731e-11
          -810 2.45652e-13 2.39405e-11 -810 3.33264e-13 5.12703e-11 -810 6.56201e-13 5.90433e-11 -810 1.28714e-12 5.28752e-11
          -810 6.70609e-13 3.88229e-11 -810 2.78257e-13 2.19224e-11 -810 4.2678e-13 1.00484e-11 -810 -3.27112e-13 -1.36609e-12
          -810 1.07197e-12 -5.4073e-11 -810 4.2795e-13 -3.02758e-11 -810 1.21342e-12 2.38704e-11 -810 1.96237e-12 5.15023e-11
          -810 2.47016e-12 5.93347e-11 -810 1.24874e-12 5.28941e-11 -810 2.6592e-13 3.87499e-11 -810 1.12402e-12 2.21298e-11
          -810 1.98595e-12 9.85834e-12 -810 3.63822e-12 -1.02074e-12 -810 8.8524e-13 -5.40594e-11 -810 8.04858e-13 -3.02804e-11
          -810 1.16354e-12 2.38278e-11 -810 1.22272e-12 5.17397e-11 -810 1.59084e-12 5.94141e-11 -810 2.32082e-12 5.30088e-11
          -810 2.70899e-12 3.87509e-11 -810 2.00958e-12 2.21674e-11 -810 1.82369e-12 9.73343e-12 -810 2.63205e-12 -6.39411e-13
          -810 6.22567e-13 -5.40017e-11 -810 6.20296e-13 -3.02796e-11 -810 9.35532e-13 2.37992e-11 -810 1.47547e-12 5.18332e-11
          -810 1.3865e-12 5.94677e-11 -810 2.4959e-12 5.28269e-11 -810 2.56135e-12 3.88926e-11 -810 1.26171e-12 2.24671e-11
          -810 1.09825e-12 9.31261e-12 -810 1.53832e-12 3.78435e-14 -810 1.07792e-13 -5.3969e-11 -810 1.90686e-13 -3.02874e-11
          -810 -1.89415e-13 2.37537e-11 -810 -5.75726e-14 5.18508e-11 -810 -1.08326e-12 5.95729e-11 -810 1.3398e-13 5.30169e-11
          -810 6.1409e-13 3.92007e-11 -810 -6.84377e-13 2.26664e-11 -810 -7.96651e-14 8.80265e-12 -810 -5.47063e-13 5.3167e-13
          -810 -2.10495e-14 -1.29222e-11 -810 -3.46326e-13 -2.19575e-12 -810 -1.68088e-13 3.1523e-11 -810 -5.26046e-14 5.91728e-11
          -810 -7.58475e-13 6.86607e-11 -810 -7.07813e-13 6.24935e-11 -810 -9.75982e-13 4.6787e-11 -810 -1.63893e-12 2.9782e-11
          -810 -1.14129e-12 1.40594e-11 -810 -1.22709e-12 1.87005e-12 -810 -4.92614e-14 -1.28724e-11 -810 -1.15928e-12 -2.02618e-12
          -810 -1.34995e-12 3.16792e-11 -810 -1.78856e-12 5.90884e-11 -810 -2.59718e-12 6.8408e-11 -810 -4.05995e-12 6.24401e-11
          -810 -5.60544e-12 4.6843e-11 -810 -6.45588e-12 2.9666e-11 -810 -5.43484e-12 1.39237e-11 -810 -6.05926e-12 2.02328e-12
          -810 3.71867e-13 -1.27394e-11 -810 -9.55445e-13 -1.7286e-12 -810 -7.22268e-13 3.19122e-11 -810 -1.27833e-12 5.90016e-11
          -810 -1.12658e-12 6.81822e-11 -810 -1.94928e-12 6.23417e-11 -810 -3.61934e-12 4.68863e-11 -810 -5.56723e-12 2.98257e-11
          -810 -4.64024e-12 1.38499e-11 -810 -4.75947e-12 2.53097e-12 -810 7.28581e-13 -1.26906e-11 -810 -4.14349e-13 -1.4517e-12
          -810 2.11826e-13 3.21447e-11 -810 -5.27265e-13 5.89101e-11 -810 -1.98135e-12 6.80428e-11 -810 -3.77463e-12 6.25855e-11
          -810 -3.10224e-12 4.67316e-11 -810 -2.10571e-12 2.94729e-11 -810 -1.1694e-12 1.41613e-11 -810 -3.36021e-12 3.17886e-12
          -810 9.11875e-13 -1.2672e-11 -810 -6.06821e-13 -1.23477e-12 -810 2.14153e-13 3.22615e-11 -810 8.08438e-13 5.86467e-11
          -810 1.35345e-12 6.77899e-11 -810 -1.70962e-13 6.23748e-11 -810 -8.15965e-13 4.66385e-11 -810 -9.08889e-13 2.9203e-11
          -810 -8.2607e-13 1.40677e-11 -810 -4.72066e-13 3.36208e-12 -810 8.54812e-13 -1.2635e-11 -810 -4.47322e-13 -1.16508e-12
          -810 4.12404e-13 3.24369e-11 -810 9.23755e-13 5.86033e-11 -810 7.32783e-13 6.76268e-11 -810 4.27188e-13 6.22633e-11
          -810 1.33588e-12 4.63806e-11 -810 -3.24136e-13 2.88093e-11 -810 1.58446e-12 1.4127e-11 -810 1.14078e-12 3.72934e-12
          -810 9.45102e-13 -1.25909e-11 -810 1.24542e-13 -1.18824e-12 -810 1.36126e-12 3.25423e-11 -810 2.46517e-12 5.85172e-11
          -810 2.76207e-12 6.76547e-11 -810 1.08713e-12 6.21159e-11 -810 8.75305e-13 4.64172e-11 -810 3.5561e-13 2.86109e-11
          -810 1.36546e-12 1.4231e-11 -810 1.36054e-12 4.19153e-12 -810 8.09098e-13 -1.2563e-11 -810 4.65553e-13 -1.2387e-12
          -810 1.06556e-12 3.25196e-11 -810 1.83079e-12 5.84835e-11 -810 4.57153e-13 6.75577e-11 -810 -3.07028e-13 6.19393e-11
          -810 2.2035e-12 4.64166e-11 -810 2.23683e-12 2.84441e-11 -810 1.91338e-12 1.43617e-11 -810 1.1307e-12 4.64276e-12
          -810 5.73777e-13 -1.25274e-11 -810 1.06884e-13 -1.31149e-12 -810 1.09108e-12 3.25783e-11 -810 1.53991e-12 5.8712e-11
          -810 2.50119e-12 6.76117e-11 -810 2.32985e-12 6.16479e-11 -810 2.41308e-12 4.61968e-11 -810 3.18012e-12 2.8467e-11
          -810 1.89981e-12 1.47387e-11 -810 1.03033e-12 5.08075e-12 -810 5.78389e-14 -1.24999e-11 -810 2.62047e-13 -1.36133e-12
          -810 8.63412e-14 3.2576e-11 -810 1.05718e-13 5.87224e-11 -810 -1.19711e-12 6.77306e-11 -810 -8.5521e-13 6.15687e-11
          -810 -1.08388e-12 4.58769e-11 -810 -1.71559e-12 2.84021e-11 -810 -8.71203e-13 1.50367e-11 -810 9.74548e-15 5.60601e-12
          -810 -7.56174e-14 2.88314e-12 -810 -2.86587e-13 1.87518e-11 -810 -1.02888e-13 4.4262e-11 -810 -7.40797e-14 6.58452e-11
          -810 -9.38086e-13 7.34234e-11 -810 -8.03818e-13 6.58502e-11 -810 -6.10915e-13 5.05531e-11 -810 -9.35013e-13 3.24321e-11
          -810 -2.20357e-12 1.87927e-11 -810 -4.53417e-12 3.51345e-12 -810 2.50144e-13 2.89555e-12 -810 -7.11962e-13 1.87733e-11
          -810 -1.07412e-12 4.41934e-11 -810 -2.34093e-12 6.59743e-11 -810 -3.29331e-12 7.36943e-11 -810 -3.73644e-12 6.60388e-11
          -810 -3.86858e-12 5.07802e-11 -810 -3.7595e-12 3.29636e-11 -810 -3.89582e-12 1.86624e-11 -810 -5.79288e-12 3.8344e-12
          -810 6.13075e-13 2.86018e-12 -810 -8.5722e-13 1.87609e-11 -810 -9.35854e-13 4.40941e-11 -810 -1.48222e-12 6.6009e-11
          -810 -1.15523e-12 7.37986e-11 -810 -1.36751e-12 6.6186e-11 -810 -3.83653e-12 5.12604e-11 -810 -3.79677e-12 3.3426e-11
          -810 -4.8855e-12 1.82712e-11 -810 -5.55656e-12 4.08172e-12 -810 8.3094e-13 2.80518e-12 -810 -3.89904e-13 1.87662e-11
          -810 -1.32419e-13 4.40552e-11 -810 -1.20644e-12 6.61641e-11 -810 -1.6816e-12 7.39595e-11 -810 -9.32008e-13 6.65306e-11
          -810 -1.57877e-12 5.17042e-11 -810 -2.71128e-12 3.38693e-11 -810 -1.93681e-12 1.79978e-11 -810 -2.50068e-12 4.36048e-12
          -810 1.13792e-12 2.74355e-12 -810 -2.84872e-13 1.88229e-11 -810 5.00677e-13 4.40561e-11 -810 3.38935e-13 6.6275e-11
          -810 1.07496e-13 7.4129e-11 -810 -1.3152e-12 6.69785e-11 -810 -1.23348e-12 5.22414e-11 -810 -2.33811e-13 3.43797e-11
          -810 1.37294e-13 1.79908e-11 -810 -3.56024e-13 4.5466e-12 -810 1.12895e-12 2.72163e-12 -810 -1.7858e-13 1.8899e-11
          -810 8.68134e-13 4.4169e-11 -810 5.81526e-13 6.62315e-11 -810 -5.06555e-14 7.41046e-11 -810 -8.89741e-14 6.72973e-11
          -810 1.3662e-12 5.26074e-11 -810 -1.27438e-12 3.50017e-11 -810 -5.9176e-13 1.79755e-11 -810 1.29019e-12 4.64421e-12
          -810 9.65501e-13 2.68896e-12 -810 -2.34379e-14 1.90144e-11 -810 1.0329e-12 4.42012e-11 -810 1.14741e-12 6.61567e-11
          -810 2.46059e-12 7.39988e-11 -810 1.84771e-12 6.761e-11 -810 1.36746e-12 5.27923e-11 -810 -6.32348e-13 3.53301e-11
          -810 -3.85383e-13 1.77563e-11 -810 -1.43875e-13 4.33691e-12 -810 7.54921e-13 2.62113e-12 -810 1.76332e-13 1.90727e-11
          -810 5.72082e-13 4.4255e-11 -810 1.40261e-12 6.59619e-11 -810 1.05141e-12 7.4122e-11 -810 -1.74239e-13 6.79897e-11
          -810 8.76922e-13 5.3076e-11 -810 2.70682e-12 3.56494e-11 -810 2.08915e-12 1.75474e-11 -810 1.17492e-12 4.32946e-12
          -810 7.08514e-13 2.55475e-12 -810 2.07209e-13 1.91281e-11 -810 1.16876e-12 4.43208e-11 -810 1.71661e-12 6.5863e-11
          -810 2.68343e-12 7.4117e-11 -810 2.5192e-12 6.83247e-11 -810 2.59305e-12 5.32791e-11 -810 2.76734e-12 3.5838e-11
          -810 2.26877e-12 1.72645e-11 -810 5.42696e-13 4.58093e-12 -810 1.26363e-13 2.4956e-12 -810 1.17287e-13 1.91513e-11
          -810 -1.11952e-13 4.43671e-11 -810 -1.7825e-13 6.57567e-11 -810 -1.46836e-13 7.41208e-11 -810 -1.22892e-12 6.84968e-11
          -810 -2.85722e-12 5.35285e-11 -810 -2.87445e-12 3.5716e-11 -810 -1.58019e-12 1.70085e-11 -810 -1.49309e-12 4.59168e-12
          -810 7.27127e-14 9.87178e-12 -810 -1.93325e-13 3.21529e-11 -810 -5.17297e-14 5.5235e-11 -810 8.61901e-15 7.02177e-11
          -810 -2.3867e-14 7.24891e-11 -810 -8.21294e-13 6.27338e-11 -810 -2.89045e-12 4.54197e-11 -810 -1.78203e-12 2.72076e-11
          -810 -1.45818e-12 1.29338e-11 -810 -5.07295e-12 -2.2003e-12 -810 3.60525e-13 9.98035e-12 -810 -2.14436e-13 3.21835e-11
          -810 -6.22479e-13 5.54381e-11 -810 -1.56041e-12 7.03625e-11 -810 -2.46783e-12 7.25723e-11 -810 -3.64664e-12 6.26395e-11
          -810 -2.47469e-12 4.50119e-11 -810 -3.16733e-12 2.68007e-11 -810 -3.85368e-12 1.31104e-11 -810 -4.32625e-12 -1.71847e-12
          -810 6.19709e-13 1.00976e-11 -810 -3.19846e-13 3.22212e-11 -810 -1.32602e-12 5.56014e-11 -810 -2.14434e-12 7.06255e-11
          -810 -2.61331e-12 7.2564e-11 -810 -3.74704e-12 6.22826e-11 -810 -4.79832e-12 4.47108e-11 -810 -4.9659e-12 2.6531e-11
          -810 -6.68857e-12 1.31207e-11 -810 -7.28557e-12 -8.52823e-13 -810 9.00838e-13 1.0224e-11 -810 3.85532e-14 3.23287e-11
          -810 5.40099e-13 5.57615e-11 -810 -5.7955e-13 7.07893e-11 -810 -1.03347e-12 7.26107e-11 -810 -4.752e-14 6.19426e-11
          -810 -2.55142e-13 4.44002e-11 -810 -1.4454e-12 2.61753e-11 -810 -3.49056e-12 1.34218e-11 -810 -3.13456e-12 -3.68923e-13
          -810 1.18333e-12 1.03199e-11 -810 5.20839e-13 3.24548e-11 -810 1.02922e-12 5.58554e-11 -810 5.34289e-13 7.08914e-11
          -810 -7.94788e-13 7.25619e-11 -810 -8.99408e-13 6.16754e-11 -810 -9.00275e-13 4.42442e-11 -810 9.61764e-13 2.59669e-11
          -810 7.60529e-14 1.34963e-11 -810 2.94062e-13 1.73708e-13 -810 1.26782e-12 1.04386e-11 -810 4.49913e-13 3.26029e-11
          -810 1.05616e-12 5.59025e-11 -810 2.62109e-13 7.09692e-11 -810 -5.53677e-14 7.25553e-11 -810 -2.09723e-13 6.1455e-11
          -810 -3.22043e-13 4.40618e-11 -810 6.18761e-13 2.58378e-11 -810 -4.52823e-13 1.39268e-11 -810 4.72239e-13 7.2461e-13
          -810 1.01416e-12 1.05393e-11 -810 6.44937e-13 3.27994e-11 -810 4.99284e-13 5.57929e-11 -810 4.47689e-13 7.08753e-11
          -810 1.60913e-12 7.26049e-11 -810 2.44768e-12 6.12134e-11 -810 9.4841e-13 4.39001e-11 -810 -2.88506e-13 2.5899e-11
          -810 -1.7143e-12 1.41489e-11 -810 -1.10532e-12 1.52946e-12 -810 9.14463e-13 1.06555e-11 -810 6.7858e-13 3.30496e-11
          -810 6.83058e-13 5.57507e-11 -810 4.14231e-13 7.08613e-11 -810 1.97951e-12 7.26116e-11 -810 1.82529e-12 6.12734e-11
          -810 1.32321e-12 4.39969e-11 -810 2.96088e-12 2.6033e-11 -810 1.82948e-12 1.44248e-11 -810 1.61219e-12 2.50843e-12
          -810 6.66059e-13 1.07296e-11 -810 5.62077e-13 3.3215e-11 -810 1.05228e-12 5.57627e-11 -810 1.59234e-12 7.08377e-11
          -810 1.74606e-12 7.2552e-11 -810 2.25807e-12 6.12296e-11 -810 2.07323e-12 4.40106e-11 -810 1.51704e-13 2.61604e-11
          -810 4.27649e-13 1.43789e-11 -810 4.81962e-13 3.29259e-12 -810 2.14902e-13 1.07302e-11 -810 1.0987e-13 3.33743e-11
          -810 -6.99834e-14 5.57044e-11 -810 -4.66834e-13 7.07678e-11 -810 -3.6573e-13 7.24503e-11 -810 -8.00978e-13 6.10997e-11
          -810 -8.21189e-13 4.38704e-11 -810 -1.76643e-12 2.63436e-11 -810 -1.06043e-12 1.45352e-11 -810 -4.18799e-12 4.01224e-12
          -810 1.46547e-13 1.33958e-11 -810 -4.98916e-13 3.92063e-11 -810 -3.70104e-14 5.86368e-11 -810 -6.10535e-14 6.95882e-11
          -810 1.63813e-13 6.89538e-11 -810 -1.74166e-12 5.83973e-11 -810 -3.36809e-12 4.11357e-11 -810 -2.19197e-12 2.32231e-11
          -810 -1.75359e-12 7.34081e-12 -810 -4.31646e-12 -8.89633e-13 -810 2.74208e-13 1.32399e-11 -810 -6.68517e-13 3.90537e-11
          -810 -2.07176e-13 5.87307e-11 -810 -2.72728e-13 6.97189e-11 -810 -1.9108e-12 6.90882e-11 -810 -2.78187e-12 5.86082e-11
          -810 -2.17086e-12 4.13516e-11 -810 -3.65753e-12 2.33641e-11 -810 -4.47117e-12 7.3557e-12 -810 -5.49797e-12 -8.01124e-13
          -810 5.96667e-13 1.30213e-11 -810 -1.02951e-12 3.88076e-11 -810 -1.19128e-12 5.88556e-11 -810 -1.49298e-12 6.98885e-11
          -810 -2.4344e-12 6.93831e-11 -810 -4.7922e-12 5.89639e-11 -810 -5.43484e-12 4.1438e-11 -810 -5.05057e-12 2.38654e-11
          -810 -4.32112e-12 7.42932e-12 -810 -4.04593e-12 -6.07151e-13 -810 1.01714e-12 1.28318e-11 -810 -4.43272e-13 3.84788e-11
          -810 9.74732e-14 5.88647e-11 -810 -4.55533e-13 6.99857e-11 -810 -6.99723e-13 6.96896e-11 -810 -2.0945e-12 5.90603e-11
          -810 -2.1279e-12 4.15112e-11 -810 -2.65603e-12 2.39196e-11 -810 -3.87795e-12 7.65928e-12 -810 -4.1949e-12 -3.20119e-13
          -810 1.22146e-12 1.26505e-11 -810 1.47302e-13 3.80962e-11 -810 1.02553e-12 5.89457e-11 -810 1.15879e-12 7.01263e-11
          -810 5.70587e-13 6.99815e-11 -810 -3.67405e-13 5.92414e-11 -810 -1.12675e-12 4.14455e-11 -810 -1.0709e-12 2.38886e-11
          -810 5.05497e-13 7.80859e-12 -810 -1.91852e-12 -3.77194e-13 -810 1.36108e-12 1.25066e-11 -810 -2.65522e-14 3.76847e-11
          -810 8.36212e-13 5.89879e-11 -810 6.98247e-13 7.03902e-11 -810 1.12495e-12 7.0391e-11 -810 -4.60351e-13 5.95144e-11
          -810 -7.32232e-13 4.15567e-11 -810 3.25665e-13 2.38811e-11 -810 -6.94471e-13 7.85532e-12 -810 1.63718e-12 -5.34772e-13
          -810 1.30109e-12 1.24662e-11 -810 4.09501e-13 3.73613e-11 -810 1.20971e-12 5.90243e-11 -810 1.35509e-12 7.07008e-11
          -810 1.06382e-12 7.0585e-11 -810 1.12283e-12 5.96095e-11 -810 1.81621e-12 4.17842e-11 -810 9.96357e-13 2.34948e-11
          -810 -5.52225e-13 8.06749e-12 -810 8.79533e-13 -3.97874e-13 -810 1.3154e-12 1.24036e-11 -810 7.26213e-13 3.71086e-11
          -810 5.11321e-13 5.89275e-11 -810 3.93884e-13 7.08761e-11 -810 2.13085e-12 7.07421e-11 -810 1.66186e-12 5.95992e-11
          -810 9.70187e-13 4.18516e-11 -810 1.52825e-12 2.33621e-11 -810 8.04317e-13 8.1316e-12 -810 -8.1094e-13 -6.0591e-13
          -810 7.63961e-13 1.22962e-11 -810 7.3346e-13 3.69353e-11 -810 1.46898e-12 5.88332e-11 -810 1.01933e-12 7.1006e-11
          -810 1.09809e-12 7.07343e-11 -810 1.548e-12 5.9428e-11 -810 1.54753e-12 4.1814e-11 -810 1.09376e-13 2.32128e-11
          -810 7.83749e-13 8.03978e-12 -810 1.09522e-12 -4.40474e-13 -810 3.39833e-13 1.22445e-11 -810 -5.10283e-14 3.68091e-11
          -810 2.91799e-13 5.88158e-11 -810 3.18288e-13 7.1226e-11 -810 -2.62769e-13 7.08886e-11 -810 -9.39398e-13 5.93275e-11
          -810 -1.71105e-12 4.17151e-11 -810 -5.77544e-13 2.31205e-11 -810 -3.80668e-13 8.07949e-12 -810 -4.41584e-12 -7.85822e-14
          -810 -6.84462e-14 1.52636e-11 -810 -4.67805e-13 4.20559e-11 -810 -2.02213e-13 6.11832e-11 -810 -2.77909e-14 6.87371e-11
          -810 -8.4032e-13 6.43741e-11 -810 -2.57772e-12 4.97719e-11 -810 -2.07993e-12 3.11744e-11 -810 -1.77675e-12 1.20971e-11
          -810 -3.36356e-12 7.1427e-13 -810 -4.83468e-12 -7.10796e-12 -810 1.25943e-13 1.52836e-11 -810 -8.04884e-13 4.23388e-11
          -810 -2.39412e-13 6.13371e-11 -810 -6.51255e-13 6.86473e-11 -810 -2.30672e-12 6.42206e-11 -810 -2.22682e-12 4.98033e-11
          -810 -1.68499e-12 3.12525e-11 -810 -3.36843e-12 1.22204e-11 -810 -5.75438e-12 6.34448e-13 -810 -8.45703e-12 -6.84492e-12
          -810 4.56908e-13 1.53243e-11 -810 -1.29418e-12 4.27925e-11 -810 -9.65122e-13 6.15228e-11 -810 -1.54569e-12 6.84881e-11
          -810 -2.59662e-12 6.39361e-11 -810 -4.37194e-12 5.00399e-11 -810 -5.17283e-12 3.13994e-11 -810 -5.49242e-12 1.20458e-11
          -810 -4.98327e-12 6.70016e-14 -810 -6.28495e-12 -6.53473e-12 -810 8.57401e-13 1.5392e-11 -810 -9.05154e-13 4.3257e-11
          -810 -8.5491e-14 6.17643e-11 -810 -1.36876e-12 6.84269e-11 -810 -7.10675e-13 6.38029e-11 -810 -2.49532e-12 5.0202e-11
          -810 -3.96837e-12 3.15015e-11 -810 -3.00002e-12 1.20148e-11 -810 -4.9725e-12 -3.47416e-13 -810 -3.97107e-12 -6.22536e-12
          -810 9.93267e-13 1.54275e-11 -810 -7.00333e-13 4.35155e-11 -810 1.20704e-12 6.19562e-11 -810 1.1778e-12 6.83528e-11
          -810 3.98295e-13 6.35002e-11 -810 -8.26447e-13 5.019e-11 -810 -8.69546e-13 3.1578e-11 -810 -1.33706e-12 1.21079e-11
          -810 -2.87105e-12 -7.65969e-13 -810 -3.70338e-12 -5.49165e-12 -810 1.23821e-12 1.54153e-11 -810 -6.92417e-13 4.37078e-11
          -810 8.65408e-13 6.22284e-11 -810 1.07516e-12 6.81431e-11 -810 1.42066e-12 6.30845e-11 -810 -6.94019e-14 5.01329e-11
          -810 -3.93708e-13 3.16384e-11 -810 -1.31411e-12 1.21653e-11 -810 -1.7115e-12 -1.05093e-12 -810 4.38655e-13 -4.99741e-12
          -810 1.13678e-12 1.53241e-11 -810 -3.74359e-13 4.38112e-11 -810 1.14129e-12 6.22061e-11 -810 1.94471e-12 6.81258e-11
          -810 2.20181e-12 6.30709e-11 -810 5.63229e-13 5.00668e-11 -810 3.9726e-13 3.1408e-11 -810 1.85414e-12 1.25409e-11
          -810 -3.41101e-14 -8.94596e-13 -810 2.29649e-12 -4.52137e-12 -810 9.79064e-13 1.52102e-11 -810 -1.32952e-13 4.37942e-11
          -810 1.13216e-12 6.23376e-11 -810 1.1673e-12 6.81415e-11 -810 1.2097e-12 6.29807e-11 -810 1.72603e-13 5.00527e-11
          -810 -2.08006e-13 3.10664e-11 -810 -1.29602e-12 1.24619e-11 -810 -4.55754e-13 -8.72676e-13 -810 -1.1718e-12 -3.48119e-12
          -810 5.97504e-13 1.50894e-11 -810 1.25087e-13 4.36392e-11 -810 1.32799e-12 6.23678e-11 -810 1.7551e-12 6.8256e-11
          -810 1.90356e-12 6.30494e-11 -810 1.51583e-12 4.99303e-11 -810 3.9469e-13 3.08522e-11 -810 -1.26424e-12 1.24251e-11
          -810 2.59611e-12 -9.24374e-13 -810 1.7951e-12 -2.58204e-12 -810 1.60242e-13 1.49825e-11 -810 -1.82803e-13 4.34683e-11
          -810 -1.43061e-13 6.24079e-11 -810 6.33229e-13 6.82023e-11 -810 5.27316e-13 6.30324e-11 -810 -1.18399e-12 4.99642e-11
          -810 -1.85614e-12 3.06553e-11 -810 -1.49944e-12 1.24817e-11 -810 -1.71746e-12 -1.04101e-12 -810 -4.34643e-12 -2.38683e-12
          -810 1.0821e-13 1.38644e-11 -810 -1.8051e-13 3.77012e-11 -810 -4.30259e-13 5.51622e-11 -810 -4.85589e-13 6.14297e-11
          -810 -7.82017e-13 5.47833e-11 -810 -2.71296e-12 3.74969e-11 -810 -3.29871e-12 1.75362e-11 -810 -2.65084e-12 2.1424e-12
          -810 -2.11268e-12 -6.34696e-12 -810 -2.16854e-12 -1.00188e-11 -810 4.25917e-13 1.3919e-11 -810 -3.84409e-13 3.75383e-11
          -810 -1.00355e-12 5.50166e-11 -810 -2.25225e-12 6.15439e-11 -810 -2.24709e-12 5.50985e-11 -810 -1.82881e-12 3.75714e-11
          -810 -2.58986e-12 1.76587e-11 -810 -3.12613e-12 2.15729e-12 -810 -5.79408e-12 -6.14016e-12 -810 -8.03347e-12 -9.55228e-12
          -810 7.32795e-13 1.40242e-11 -810 -4.62711e-13 3.75379e-11 -810 -1.05431e-12 5.48164e-11 -810 -1.58691e-12 6.16349e-11
          -810 -3.56127e-12 5.54054e-11 -810 -4.19374e-12 3.76433e-11 -810 -4.40746e-12 1.7815e-11 -810 -5.40288e-12 2.41123e-12
          -810 -7.59484e-12 -5.69845e-12 -810 -7.28307e-12 -9.27435e-12 -810 1.09209e-12 1.41733e-11 -810 -9.12839e-14 3.75581e-11
          -810 -7.76139e-13 5.46014e-11 -810 -2.36088e-12 6.16812e-11 -810 -1.56161e-12 5.56362e-11 -810 -8.47716e-13 3.79246e-11
          -810 -2.69572e-12 1.8399e-11 -810 -2.7302e-12 2.6569e-12 -810 -5.49756e-12 -5.1583e-12 -810 -4.16164e-12 -9.33804e-12
          -810 1.24938e-12 1.43605e-11 -810 4.38813e-13 3.75743e-11 -810 7.40118e-13 5.44144e-11 -810 3.56015e-13 6.15522e-11
          -810 -4.34581e-13 5.58471e-11 -810 4.7826e-13 3.82166e-11 -810 6.40775e-14 1.87919e-11 -810 -1.09281e-12 2.74541e-12
          -810 -4.32132e-12 -4.9788e-12 -810 -1.71312e-12 -9.21893e-12 -810 1.32873e-12 1.4443e-11 -810 5.16545e-13 3.77149e-11
          -810 7.04201e-13 5.43449e-11 -810 5.39001e-13 6.14703e-11 -810 7.69686e-14 5.59819e-11 -810 2.45089e-13 3.86235e-11
          -810 -3.10395e-13 1.91104e-11 -810 1.09054e-13 2.84302e-12 -810 -1.7722e-12 -4.79268e-12 -810 -2.2741e-12 -8.87151e-12
          -810 1.07853e-12 1.43694e-11 -810 2.36235e-13 3.79899e-11 -810 1.05601e-12 5.43218e-11 -810 1.21431e-12 6.13412e-11
          -810 2.30315e-12 5.59091e-11 -810 1.30004e-12 3.89503e-11 -810 1.20574e-12 1.95703e-11 -810 1.58295e-12 2.9795e-12
          -810 -1.64067e-12 -4.997e-12 -810 -5.70724e-13 -9.12711e-12 -810 9.84678e-13 1.43617e-11 -810 6.93104e-13 3.82215e-11
          -810 1.87515e-12 5.43582e-11 -810 1.16597e-12 6.11038e-11 -810 -3.05794e-14 5.57247e-11 -810 8.30335e-13 3.92952e-11
          -810 1.15762e-12 2.04198e-11 -810 2.02654e-12 3.36497e-12 -810 -2.83487e-13 -5.12852e-12 -810 7.19367e-13 -9.08906e-12
          -810 6.83794e-13 1.44211e-11 -810 2.92142e-13 3.84502e-11 -810 1.27138e-12 5.43979e-11 -810 2.1896e-12 6.08681e-11
          -810 1.9128e-12 5.55245e-11 -810 2.6918e-12 3.96294e-11 -810 6.39634e-13 2.09897e-11 -810 3.55264e-13 3.88361e-12
          -810 1.40709e-12 -5.198e-12 -810 -1.03426e-12 -8.83263e-12 -810 2.09895e-13 1.44422e-11 -810 1.72348e-13 3.86211e-11
          -810 -1.82871e-13 5.44665e-11 -810 -1.18806e-12 6.06315e-11 -810 -1.15389e-12 5.54137e-11 -810 -5.70786e-13 3.98147e-11
          -810 -1.42454e-12 2.14066e-11 -810 -2.8523e-12 3.96137e-12 -810 -2.92678e-12 -5.42879e-12 -810 -4.57853e-12 -8.21721e-12
          -810 2.39737e-14 1.003e-11 -810 -5.00203e-13 3.15966e-11 -810 -8.56924e-13 4.59747e-11 -810 -9.75204e-13 4.84753e-11
          -810 -2.13096e-13 4.00695e-11 -810 -1.96865e-12 2.67552e-11 -810 -2.33144e-12 1.01338e-11 -810 -2.74154e-12 -3.45679e-12
          -810 -2.39795e-12 -1.24606e-11 -810 -1.5584e-12 -1.22323e-11 -810 1.59442e-13 9.81202e-12 -810 -1.47134e-12 3.14701e-11
          -810 -1.92931e-12 4.62692e-11 -810 -1.8567e-12 4.86829e-11 -810 -2.68552e-12 3.99553e-11 -810 -4.41283e-12 2.65426e-11
          -810 -4.96996e-12 9.97332e-12 -810 -3.8535e-12 -3.67516e-12 -810 -5.18246e-12 -1.27212e-11 -810 -5.74685e-12 -1.16508e-11
          -810 5.20685e-13 9.58061e-12 -810 -1.46849e-12 3.12327e-11 -810 -1.48692e-12 4.66182e-11 -810 -1.77477e-12 4.89434e-11
          -810 -3.51804e-12 3.99007e-11 -810 -4.69766e-12 2.60107e-11 -810 -4.76977e-12 9.59033e-12 -810 -5.59924e-12 -4.13838e-12
          -810 -6.98159e-12 -1.3081e-11 -810 -8.28444e-12 -1.06177e-11 -810 1.29138e-12 9.53553e-12 -810 -6.66311e-13 3.10466e-11
          -810 -1.41592e-12 4.67001e-11 -810 -1.71385e-12 4.92412e-11 -810 -1.67864e-12 3.99735e-11 -810 -3.15827e-12 2.55309e-11
          -810 -2.82055e-12 8.94348e-12 -810 -4.16424e-12 -4.61815e-12 -810 -4.95915e-12 -1.31356e-11 -810 -5.05673e-12 -1.0262e-11
          -810 1.69841e-12 9.70117e-12 -810 2.33924e-13 3.08001e-11 -810 5.13624e-13 4.67423e-11 -810 1.68795e-13 4.96093e-11
          -810 4.06333e-13 3.99586e-11 -810 6.79908e-14 2.4937e-11 -810 1.72722e-13 8.62998e-12 -810 -1.03052e-12 -4.7687e-12
          -810 -2.55467e-12 -1.31654e-11 -810 -2.07544e-12 -9.90632e-12 -810 1.76711e-12 9.80623e-12 -810 4.66234e-13 3.06276e-11
          -810 3.29888e-13 4.67597e-11 -810 2.28799e-13 4.98443e-11 -810 3.1228e-13 3.98784e-11 -810 -6.18794e-13 2.43414e-11
          -810 -2.19875e-13 8.30986e-12 -810 -1.70228e-13 -4.91924e-12 -810 -1.8445e-12 -1.28908e-11 -810 7.00376e-14 -9.38023e-12
          -810 1.83525e-12 9.9059e-12 -810 9.10193e-13 3.0542e-11 -810 1.04451e-12 4.65653e-11 -810 8.37496e-13 4.97872e-11
          -810 9.05931e-13 3.98362e-11 -810 1.61516e-12 2.40006e-11 -810 2.62612e-12 7.83009e-12 -810 2.14414e-13 -5.31546e-12
          -810 -1.15021e-12 -1.2636e-11 -810 -1.44718e-12 -8.70194e-12 -810 1.35224e-12 1.00831e-11 -810 9.18923e-13 3.04456e-11
          -810 1.16746e-12 4.62617e-11 -810 1.47911e-13 4.97599e-11 -810 5.61069e-13 3.98469e-11 -810 8.24381e-13 2.39328e-11
          -810 2.15435e-12 7.47854e-12 -810 2.5495e-12 -5.88953e-12 -810 3.23919e-13 -1.25119e-11 -810 -5.76502e-13 -8.22383e-12
          -810 1.19699e-12 1.0255e-11 -810 1.20978e-12 3.02914e-11 -810 1.35437e-12 4.61658e-11 -810 8.28969e-13 4.95977e-11
          -810 1.52662e-12 3.99082e-11 -810 1.4729e-12 2.36656e-11 -810 1.121e-12 6.97975e-12 -810 2.0628e-12 -6.04669e-12
          -810 7.29573e-13 -1.26567e-11 -810 3.65387e-13 -7.79039e-12 -810 2.81634e-13 1.03139e-11 -810 6.56753e-14 3.0121e-11
          -810 -7.82298e-14 4.61931e-11 -810 -1.33401e-12 4.94828e-11 -810 -1.13368e-12 3.99396e-11 -810 -1.0152e-12 2.34216e-11
          -810 -2.1693e-12 6.61993e-12 -810 -3.33497e-12 -6.18897e-12 -810 -2.78377e-12 -1.25723e-11 -810 -3.01351e-12 -7.22377e-12
          -810 -1.16622e-13 6.53638e-12 -810 -1.55549e-13 1.65535e-11 -810 4.15594e-13 1.91972e-11 -810 -1.19888e-13 1.85553e-11
          -810 -6.89007e-13 1.50646e-11 -810 -1.39753e-12 7.39748e-12 -810 -9.91992e-13 -6.25349e-13 -810 -1.16489e-12 -8.75323e-12
          -810 -1.20859e-12 -1.01545e-11 -810 -2.0724e-12 -1.52664e-11 -810 -4.32166e-13 6.49585e-12 -810 -1.00569e-12 1.66805e-11
          -810 2.3175e-13 1.94545e-11 -810 3.95834e-13 1.86298e-11 -810 -2.11116e-12 1.52243e-11 -810 -3.87591e-12 7.85656e-12
          -810 -4.19297e-12 -3.23428e-13 -810 -5.4561e-12 -8.52823e-12 -810 -4.13435e-12 -1.00502e-11 -810 -2.44794e-12 -1.41092e-11
          -810 -2.26032e-13 6.4913e-12 -810 -1.0719e-12 1.6824e-11 -810 -6.68376e-13 1.97076e-11 -810 -6.74848e-13 1.87117e-11
          -810 -1.5103e-12 1.55907e-11 -810 -2.00138e-12 8.62832e-12 -810 -1.26376e-12 3.226e-13 -810 -2.17954e-12 -7.78377e-12
          -810 -3.65826e-12 -9.72103e-12 -810 -6.0156e-12 -1.24681e-11 -810 3.94415e-13 6.56926e-12 -810 -2.34637e-13 1.67926e-11
          -810 5.32503e-13 1.99078e-11 -810 1.53942e-12 1.88523e-11 -810 1.07511e-12 1.57735e-11 -810 -1.80716e-12 9.34135e-12
          -810 -2.50651e-12 1.15557e-12 -810 -1.38448e-12 -6.75972e-12 -810 -2.91049e-13 -9.08906e-12 -810 -2.23438e-12 -1.06003e-11
          -810 5.42563e-13 6.54052e-12 -810 2.99442e-13 1.67264e-11 -810 2.15298e-12 1.99723e-11 -810 2.67596e-12 1.90061e-11
          -810 1.21419e-12 1.59886e-11 -810 1.27973e-12 9.80623e-12 -810 2.16721e-12 1.56585e-12 -810 1.17232e-12 -5.98961e-12
          -810 5.73044e-13 -8.53319e-12 -810 -1.56097e-13 -8.97491e-12 -810 1.02464e-12 6.54796e-12 -810 7.32073e-13 1.65746e-11
          -810 1.81736e-12 2.00517e-11 -810 2.56037e-12 1.90491e-11 -810 2.97564e-12 1.62433e-11 -810 2.15138e-12 1.04556e-11
          -810 2.08875e-12 2.15398e-12 -810 1.29015e-12 -5.67942e-12 -810 1.10562e-13 -8.00876e-12 -810 -9.23756e-13 -7.73579e-12
          -810 1.04115e-12 6.55582e-12 -810 1.3344e-12 1.63302e-11 -810 2.2139e-12 2.01162e-11 -810 3.26993e-12 1.93155e-11
          -810 2.64148e-12 1.64187e-11 -810 2.37716e-12 1.07591e-11 -810 2.4603e-12 2.50222e-12 -810 1.88244e-12 -5.02843e-12
          -810 1.9599e-12 -7.55878e-12 -810 2.35581e-12 -6.42554e-12 -810 8.41363e-13 6.47682e-12 -810 1.47703e-12 1.62185e-11
          -810 2.3675e-12 2.02295e-11 -810 3.09716e-12 1.95281e-11 -810 4.55238e-12 1.69158e-11 -810 4.54526e-12 1.08584e-11
          -810 4.58279e-12 2.85543e-12 -810 3.82271e-12 -4.13425e-12 -810 2.3276e-12 -6.93343e-12 -810 5.76504e-13 -4.63966e-12
          -810 8.62113e-13 6.35461e-12 -810 1.60964e-12 1.60899e-11 -810 3.1176e-12 2.04065e-11 -810 3.83006e-12 1.99475e-11
          -810 3.12609e-12 1.7298e-11 -810 2.39889e-12 1.12794e-11 -810 3.35348e-12 3.11351e-12 -810 3.88635e-12 -3.40054e-12
          -810 3.20994e-12 -6.46111e-12 -810 1.75721e-12 -2.79504e-12 -810 2.02129e-13 6.24232e-12 -810 4.64919e-13 1.59762e-11
          -810 1.07159e-12 2.06315e-11 -810 1.09726e-12 2.04471e-11 -810 1.13599e-12 1.74998e-11 -810 8.15714e-14 1.14788e-11
          -810 -8.77519e-13 3.48078e-12 -810 -6.84227e-13 -2.8728e-12 -810 1.63352e-13 -6.08888e-12 -810 -1.96023e-12 -1.61135e-12
        </DataArray>
        <DataArray type="Float32" Name="stress Y" NumberOfComponents="3" format="ascii">
          2.12701e-14 -210 -5.63547e-13 -3.70915e-13 -210 -1.19691e-12 -9.20383e-13 -210 -1.69081e-12 -1.97605e-12 -210 -1.65241e-12
          -2.83296e-12 -210 -6.76121e-13 -2.77606e-12 -210 -3.21169e-13 -3.0543e-12 -210 -1.03624e-12 -4.70891e-12 -210 -1.71299e-12
          -3.62367e-12 -210 -2.23946e-12 -2.92239e-12 -210 -1.16884e-12 -5.40782e-13 -210 -1.96932e-12 -1.83545e-12 -210 -3.70945e-12
          -2.91305e-12 -210 -5.19803e-12 -4.6163e-12 -210 -4.99075e-12 -5.90971e-12 -210 -2.16358e-12 -7.42333e-12 -210 -1.09292e-12
          -8.89817e-12 -210 -3.38462e-12 -9.41913e-12 -210 -5.25253e-12 -8.79581e-12 -210 -6.95612e-12 -8.42773e-12 -210 -3.48119e-12
          -3.50478e-13 -210 -2.21081e-12 -1.58921e-12 -210 -4.08515e-12 -3.66378e-12 -210 -5.56619e-12 -5.13092e-12 -210 -5.23461e-12
          -5.78675e-12 -210 -2.25068e-12 -7.13565e-12 -210 -1.14989e-12 -1.00845e-11 -210 -3.39475e-12 -1.03764e-11 -210 -4.98921e-12
          -1.01696e-11 -210 -6.61341e-12 -9.71008e-12 -210 -3.39577e-12 -3.92221e-14 -210 -1.75728e-12 -1.25533e-12 -210 -2.8318e-12
          -1.78213e-12 -210 -3.32484e-12 -2.74964e-12 -210 -3.18304e-12 -4.21875e-12 -210 -1.61328e-12 -4.35473e-12 -210 -8.47063e-13
          -6.76845e-12 -210 -1.72809e-12 -9.14416e-12 -210 -1.91602e-12 -8.67739e-12 -210 -2.78615e-12 -6.60109e-12 -210 -1.45896e-12
          2.1711e-13 -210 -1.52162e-12 -2.93244e-13 -210 -2.00473e-12 -1.41456e-12 -210 -1.76039e-12 -2.23389e-12 -210 -1.55914e-12
          -2.70179e-12 -210 -1.01888e-12 -1.9342e-12 -210 -6.34718e-13 -4.08194e-12 -210 -4.4977e-13 -4.85586e-12 -210 5.40215e-13
          -6.60114e-12 -210 2.86823e-13 -8.18516e-12 -210 3.69126e-13 2.69153e-13 -210 -1.39017e-12 -4.50018e-14 -210 -1.45305e-12
          -5.21638e-13 -210 -5.31593e-13 -9.80258e-13 -210 -3.55139e-13 -1.46537e-12 -210 -7.84932e-13 -1.5963e-12 -210 -5.26302e-13
          -2.62382e-12 -210 5.82534e-13 -2.95268e-12 -210 2.25626e-12 -5.3907e-12 -210 2.56577e-12 -5.97509e-12 -210 1.93762e-12
          3.41657e-13 -210 -1.20352e-12 6.68694e-14 -210 -1.07954e-12 -1.36962e-14 -210 2.01169e-13 -1.47082e-12 -210 5.48035e-13
          -2.45574e-12 -210 -4.72633e-13 -1.3372e-12 -210 -5.32508e-13 -1.71504e-12 -210 1.20932e-12 -1.73516e-12 -210 3.51134e-12
          -2.26087e-12 -210 4.25201e-12 -1.77478e-12 -210 3.2546e-12 1.57639e-13 -210 -1.13938e-12 4.65128e-13 -210 -7.89583e-13
          -9.97305e-14 -210 7.66955e-13 -1.26744e-12 -210 1.05249e-12 -8.15291e-13 -210 -3.15556e-13 1.3076e-13 -210 -5.16187e-13
          -8.81024e-13 -210 1.49598e-12 -1.53035e-12 -210 4.03032e-12 -3.89071e-12 -210 4.89536e-12 -5.41123e-12 -210 3.93885e-12
          1.56631e-13 -210 -1.03534e-12 2.87626e-13 -210 -5.29869e-13 3.10883e-13 -210 1.00501e-12 -9.11548e-13 -210 1.14384e-12
          -1.56009e-12 -210 -2.31785e-13 -2.07708e-12 -210 -4.17135e-13 -2.30834e-12 -210 1.55043e-12 -1.91769e-12 -210 4.02208e-12
          -1.80872e-12 -210 4.78951e-12 -3.8764e-12 -210 4.40662e-12 -1.48812e-13 -210 -1.13729e-12 -4.52457e-13 -210 -1.26293e-12
          -1.11291e-12 -210 -4.24513e-13 -1.11696e-12 -210 -2.44809e-13 -1.39297e-12 -210 -9.95327e-13 -1.01075e-12 -210 -1.16648e-12
          -1.64911e-12 -210 -1.6297e-13 -3.14175e-12 -210 9.91949e-13 -4.00916e-12 -210 1.09977e-12 -3.09769e-12 -210 8.75886e-13
          1.37997e-13 -210 -2.99936e-13 -5.84959e-13 -210 -3.90061e-13 -3.17621e-13 -210 -3.28011e-13 -3.50128e-13 -210 -1.26271e-13
          -8.61708e-13 -210 -3.7735e-13 -1.73234e-12 -210 -4.80115e-13 -1.76536e-12 -210 -3.01058e-13 -1.44381e-12 -210 -4.94094e-13
          -1.10633e-12 -210 -3.86552e-13 -1.15195e-13 -210 8.38373e-14 -1.24747e-13 -210 -1.82913e-12 -1.47073e-12 -210 -1.92462e-12
          -1.86444e-12 -210 -1.76648e-12 -2.40325e-12 -210 -1.20936e-12 -2.65912e-12 -210 -1.01556e-12 -4.31875e-12 -210 -1.23098e-12
          -6.01996e-12 -210 -1.49217e-12 -5.15588e-12 -210 -2.15667e-12 -5.00871e-12 -210 -2.11798e-12 -7.32733e-12 -210 -6.1774e-13
          3.45554e-13 -210 -1.53926e-12 -7.76463e-13 -210 -1.83461e-12 -1.75994e-12 -210 -2.08059e-12 -2.94456e-12 -210 -1.71094e-12
          -2.29496e-12 -210 -1.04662e-12 -3.39253e-12 -210 -9.96398e-13 -4.76714e-12 -210 -1.81093e-12 -4.21544e-12 -210 -3.45453e-12
          -7.39236e-12 -210 -3.73403e-12 -5.48242e-12 -210 -8.12047e-13 6.59163e-13 -210 -7.48009e-13 -5.67802e-13 -210 -1.09668e-12
          -2.54565e-13 -210 -1.63606e-12 -8.71069e-15 -210 -1.36238e-12 -2.08316e-12 -210 -1.64923e-13 -2.06103e-12 -210 -1.63782e-13
          -3.04277e-12 -210 -1.66588e-12 -1.7484e-12 -210 -3.75023e-12 -2.45415e-12 -210 -4.219e-12 -3.12929e-12 -210 -6.39927e-14
          9.51926e-13 -210 -1.42383e-13 -3.08121e-13 -210 -4.05101e-13 -2.43227e-14 -210 -1.41317e-12 8.62353e-13 -210 -1.20263e-12
          8.30176e-13 -210 2.92815e-13 1.05585e-13 -210 4.73478e-13 -4.50612e-13 -210 -1.36752e-12 7.5203e-13 -210 -3.6913e-12
          -8.83419e-13 -210 -4.42488e-12 3.38327e-14 -210 3.81004e-13 1.05994e-12 -210 6.99894e-14 3.75367e-13 -210 1.83487e-13
          2.45652e-13 -210 -8.23343e-13 3.33264e-13 -210 -8.70304e-13 6.56201e-13 -210 5.23798e-13 1.28714e-12 -210 8.67929e-13
          6.70609e-13 -210 -9.41876e-13 2.78257e-13 -210 -3.30243e-12 4.2678e-13 -210 -4.24071e-12 -3.27112e-13 -210 1.25117e-12
          1.07197e-12 -210 2.53001e-13 4.2795e-13 -210 5.32207e-13 1.21342e-12 -210 -3.34902e-13 1.96237e-12 -210 -3.41002e-13
          2.47016e-12 -210 9.38166e-13 1.24874e-12 -210 1.22159e-12 2.6592e-13 -210 -3.85379e-13 1.12402e-12 -210 -2.23462e-12
          1.98595e-12 -210 -2.83249e-12 3.63822e-12 -210 2.72516e-12 8.8524e-13 -210 5.17023e-13 8.04858e-13 -210 1.12868e-12
          1.16354e-12 -210 6.47403e-13 1.22272e-12 -210 5.23684e-13 1.59084e-12 -210 1.28893e-12 2.32082e-12 -210 1.41797e-12
          2.70899e-12 -210 4.10566e-13 2.00958e-12 -210 -4.9706e-13 1.82369e-12 -210 -1.14389e-12 2.63205e-12 -210 4.21738e-12
          6.22567e-13 -210 4.03604e-13 6.20296e-13 -210 1.43128e-12 9.35532e-13 -210 1.42282e-12 1.47547e-12 -210 1.15733e-12
          1.3865e-12 -210 1.83891e-12 2.4959e-12 -210 2.0835e-12 2.56135e-12 -210 1.48366e-12 1.26171e-12 -210 1.54462e-12
          1.09825e-12 -210 1.14691e-12 1.53832e-12 -210 6.43524e-12 1.07792e-13 -210 -4.94556e-13 1.90686e-13 -210 -2.57471e-13
          -1.89415e-13 -210 -4.60661e-13 -5.75726e-14 -210 -2.84542e-13 -1.08326e-12 -210 1.50108e-13 1.3398e-13 -210 2.77669e-13
          6.1409e-13 -210 -7.65619e-14 -6.84377e-13 -210 -2.15027e-13 -7.96651e-14 -210 -5.65837e-13 -5.47063e-13 -210 1.68877e-12
          -2.10495e-14 -210 -7.29304e-13 -3.46326e-13 -210 -5.31468e-13 -1.68088e-13 -210 -9.28563e-14 -5.26046e-14 -210 1.1441e-13
          -7.58475e-13 -210 -2.37951e-13 -7.07813e-13 -210 -3.2926e-13 -9.75982e-13 -210 3.74184e-13 -1.63893e-12 -210 1.04071e-12
          -1.14129e-12 -210 1.25565e-12 -1.22709e-12 -210 1.49955e-12 -4.92614e-14 -210 -2.41823e-12 -1.15928e-12 -210 -2.21209e-12
          -1.34995e-12 -210 -1.18696e-12 -1.78856e-12 -210 -4.1141e-13 -2.59718e-12 -210 -8.31845e-13 -4.05995e-12 -210 -6.51381e-13
          -5.60544e-12 -210 9.94504e-13 -6.45588e-12 -210 2.71079e-12 -5.43484e-12 -210 3.18103e-12 -6.05926e-12 -210 3.62122e-12
          3.71867e-13 -210 -2.51243e-12 -9.55445e-13 -210 -2.5782e-12 -7.22268e-13 -210 -1.20056e-12 -1.27833e-12 -210 -4.21397e-13
          -1.12658e-12 -210 -1.15452e-12 -1.94928e-12 -210 -9.05914e-13 -3.61934e-12 -210 1.41935e-12 -5.56723e-12 -210 3.55711e-12
          -4.64024e-12 -210 4.61986e-12 -4.75947e-12 -210 5.05052e-12 7.28581e-13 -210 -1.81632e-12 -4.14349e-13 -210 -2.49051e-12
          2.11826e-13 -210 -1.29654e-12 -5.27265e-13 -210 -2.4927e-13 -1.98135e-12 -210 -5.94572e-13 -3.77463e-12 -210 -5.82916e-13
          -3.10224e-12 -210 1.6045e-12 -2.10571e-12 -210 3.88582e-12 -1.1694e-12 -210 5.70721e-12 -3.36021e-12 -210 6.09344e-12
          9.11875e-13 -210 -9.84583e-13 -6.06821e-13 -210 -2.03669e-12 2.14153e-13 -210 -1.44454e-12 8.08438e-13 -210 -4.87824e-13
          1.35345e-12 -210 -6.33783e-13 -1.70962e-13 -210 -3.67536e-13 -8.15965e-13 -210 1.56775e-12 -9.08889e-13 -210 3.59242e-12
          -8.2607e-13 -210 6.01294e-12 -4.72066e-13 -210 6.21625e-12 8.54812e-13 -210 -5.8448e-13 -4.47322e-13 -210 -1.51569e-12
          4.12404e-13 -210 -1.19126e-12 9.23755e-13 -210 -4.73087e-13 7.32783e-13 -210 -4.72197e-13 4.27188e-13 -210 -1.27319e-13
          1.33588e-12 -210 1.63173e-12 -3.24136e-13 -210 3.34876e-12 1.58446e-12 -210 5.61822e-12 1.14078e-12 -210 6.45603e-12
          9.45102e-13 -210 -8.87044e-14 1.24542e-13 -210 -1.316e-12 1.36126e-12 -210 -1.27613e-12 2.46517e-12 -210 -5.4164e-13
          2.76207e-12 -210 -2.73369e-13 1.08713e-12 -210 1.75697e-13 8.75305e-13 -210 1.58358e-12 3.5561e-13 -210 2.78576e-12
          1.36546e-12 -210 5.04537e-12 1.36054e-12 -210 6.36683e-12 8.09098e-13 -210 3.66364e-13 4.65553e-13 -210 -5.11845e-13
          1.06556e-12 -210 -7.80534e-13 1.83079e-12 -210 -1.43428e-13 4.57153e-13 -210 2.68039e-13 -3.07028e-13 -210 5.19978e-13
          2.2035e-12 -210 1.62006e-12 2.23683e-12 -210 2.46782e-12 1.91338e-12 -210 3.92953e-12 1.1307e-12 -210 5.9214e-12
          5.73777e-13 -210 6.82497e-13 1.06884e-13 -210 -1.76152e-13 1.09108e-12 -210 -6.01664e-13 1.53991e-12 -210 -1.57552e-13
          2.50119e-12 -210 6.74179e-13 2.32985e-12 -210 9.3982e-13 2.41308e-12 -210 1.43875e-12 3.18012e-12 -210 1.92868e-12
          1.89981e-12 -210 3.01316e-12 1.03033e-12 -210 5.74096e-12 5.78389e-14 -210 -2.58501e-13 2.62047e-13 -210 -8.48064e-13
          8.63412e-14 -210 -1.02733e-12 1.05718e-13 -210 -4.61654e-13 -1.19711e-12 -210 3.4763e-15 -8.5521e-13 -210 1.69538e-14
          -1.08388e-12 -210 2.84676e-13 -1.71559e-12 -210 3.35965e-13 -8.71203e-13 -210 4.90257e-13 9.74548e-15 -210 1.62067e-12
          -7.56174e-14 -210 -3.62548e-13 -2.86587e-13 -210 -1.28388e-13 -1.02888e-13 -210 1.12354e-14 -7.40797e-14 -210 -1.67195e-13
          -9.38086e-13 -210 2.32235e-13 -8.03818e-13 -210 5.37619e-13 -6.10915e-13 -210 5.51569e-13 -9.35013e-13 -210 2.87314e-13
          -2.20357e-12 -210 -4.96094e-13 -4.53417e-12 -210 6.47817e-13 2.50144e-13 -210 -1.7905e-12 -7.11962e-13 -210 -5.63355e-13
          -1.07412e-12 -210 -1.29132e-13 -2.34093e-12 -210 -1.83638e-13 -3.29331e-12 -210 4.44131e-13 -3.73644e-12 -210 1.33365e-12
          -3.86858e-12 -210 1.08639e-12 -3.7595e-12 -210 7.64273e-13 -3.89582e-12 -210 -5.85845e-13 -5.79288e-12 -210 2.51147e-12
          6.13075e-13 -210 -1.57748e-12 -8.5722e-13 -210 -3.16973e-13 -9.35854e-13 -210 4.21755e-13 -1.48222e-12 -210 8.57973e-13
          -1.15523e-12 -210 1.1683e-12 -1.36751e-12 -210 1.57209e-12 -3.83653e-12 -210 1.45271e-12 -3.79677e-12 -210 1.58126e-12
          -4.8855e-12 -210 -4.60998e-13 -5.55656e-12 -210 3.31196e-12 8.3094e-13 -210 -1.03932e-12 -3.89904e-13 -210 7.44361e-13
          -1.32419e-13 -210 1.70883e-12 -1.20644e-12 -210 1.41493e-12 -1.6816e-12 -210 1.34276e-12 -9.32008e-13 -210 1.78844e-12
          -1.57877e-12 -210 1.99843e-12 -2.71128e-12 -210 2.28937e-12 -1.93681e-12 -210 5.22731e-13 -2.50068e-12 -210 3.96748e-12
          1.13792e-12 -210 -1.55872e-13 -2.84872e-13 -210 1.60305e-12 5.00677e-13 -210 2.74434e-12 3.38935e-13 -210 2.45168e-12
          1.07496e-13 -210 1.53068e-12 -1.3152e-12 -210 1.51791e-12 -1.23348e-12 -210 1.49337e-12 -2.33811e-13 -210 2.26405e-12
          1.37294e-13 -210 1.08988e-12 -3.56024e-13 -210 4.2126e-12 1.12895e-12 -210 2.29958e-13 -1.7858e-13 -210 1.90753e-12
          8.68134e-13 -210 2.96105e-12 5.81526e-13 -210 2.81629e-12 -5.06555e-14 -210 1.8287e-12 -8.89741e-14 -210 2.00732e-12
          1.3662e-12 -210 2.03055e-12 -1.27438e-12 -210 2.62788e-12 -5.9176e-13 -210 1.66564e-12 1.29019e-12 -210 4.61444e-12
          9.65501e-13 -210 3.27479e-13 -2.34379e-14 -210 1.78289e-12 1.0329e-12 -210 2.9839e-12 1.14741e-12 -210 2.64312e-12
          2.46059e-12 -210 1.50669e-12 1.84771e-12 -210 1.36784e-12 1.36746e-12 -210 1.56342e-12 -6.32348e-13 -210 2.58191e-12
          -3.85383e-13 -210 2.15284e-12 -1.43875e-13 -210 4.8702e-12 7.54921e-13 -210 7.97069e-13 1.76332e-13 -210 1.80006e-12
          5.72082e-13 -210 2.5566e-12 1.40261e-12 -210 2.22207e-12 1.05141e-12 -210 1.2041e-12 -1.74239e-13 -210 8.75185e-13
          8.76922e-13 -210 1.17866e-12 2.70682e-12 -210 2.23379e-12 2.08915e-12 -210 2.1408e-12 1.17492e-12 -210 4.94489e-12
          7.08514e-13 -210 1.10826e-12 2.07209e-13 -210 1.69408e-12 1.16876e-12 -210 2.24465e-12 1.71661e-12 -210 2.17238e-12
          2.68343e-12 -210 9.71659e-13 2.5192e-12 -210 5.16777e-13 2.59305e-12 -210 1.06546e-12 2.76734e-12 -210 2.09304e-12
          2.26877e-12 -210 2.16085e-12 5.42696e-13 -210 5.31308e-12 1.26363e-13 -210 -7.20185e-13 1.17287e-13 -210 -3.98764e-13
          -1.11952e-13 -210 2.89444e-13 -1.7825e-13 -210 3.31731e-13 -1.46836e-13 -210 -8.17765e-14 -1.22892e-12 -210 2.32242e-13
          -2.85722e-12 -210 6.7952e-13 -2.87445e-12 -210 1.02792e-12 -1.58019e-12 -210 8.98372e-13 -1.49309e-12 -210 2.18835e-12
          7.27127e-14 -210 -2.66671e-13 -1.93325e-13 -210 -6.36435e-13 -5.17297e-14 -210 -1.1875e-12 8.61901e-15 -210 -9.11612e-13
          -2.3867e-14 -210 6.82194e-15 -8.21294e-13 -210 6.11415e-13 -2.89045e-12 -210 3.88259e-13 -1.78203e-12 -210 2.8544e-13
          -1.45818e-12 -210 7.62083e-13 -5.07295e-12 -210 1.26077e-12 3.60525e-13 -210 -1.66923e-12 -2.14436e-13 -210 -2.74176e-12
          -6.22479e-13 -210 -3.04408e-12 -1.56041e-12 -210 -1.46625e-12 -2.46783e-12 -210 -2.72945e-13 -3.64664e-12 -210 6.46172e-13
          -2.47469e-12 -210 7.92244e-13 -3.16733e-12 -210 3.77343e-13 -3.85368e-12 -210 1.85223e-12 -4.32625e-12 -210 3.92975e-12
          6.19709e-13 -210 -2.0985e-12 -3.19846e-13 -210 -3.1955e-12 -1.32602e-12 -210 -4.05502e-12 -2.14434e-12 -210 -2.62192e-12
          -2.61331e-12 -210 -3.30903e-13 -3.74704e-12 -210 7.28273e-13 -4.79832e-12 -210 1.16245e-12 -4.9659e-12 -210 1.29849e-12
          -6.68857e-12 -210 2.26115e-12 -7.28557e-12 -210 4.6573e-12 9.00838e-13 -210 -1.76937e-12 3.85532e-14 -210 -2.73375e-12
          5.40099e-13 -210 -3.72552e-12 -5.7955e-13 -210 -3.24725e-12 -1.03347e-12 -210 -9.86858e-13 -4.752e-14 -210 4.17711e-13
          -2.55142e-13 -210 1.5688e-12 -1.4454e-12 -210 2.19646e-12 -3.49056e-12 -210 3.60242e-12 -3.13456e-12 -210 5.53047e-12
          1.18333e-12 -210 -9.56774e-13 5.20839e-13 -210 -2.01347e-12 1.02922e-12 -210 -2.71055e-12 5.34289e-13 -210 -2.60058e-12
          -7.94788e-13 -210 -1.18545e-12 -8.99408e-13 -210 -1.63623e-13 -9.00275e-13 -210 1.44041e-12 9.61764e-13 -210 2.3871e-12
          7.60529e-14 -210 4.00739e-12 2.94062e-13 -210 5.76493e-12 1.26782e-12 -210 -8.05772e-13 4.49913e-13 -210 -1.71929e-12
          1.05616e-12 -210 -2.6015e-12 2.62109e-13 -210 -2.72379e-12 -5.53677e-14 -210 -1.03793e-12 -2.09723e-13 -210 7.06082e-13
          -3.22043e-13 -210 2.12302e-12 6.18761e-13 -210 3.02762e-12 -4.52823e-13 -210 3.93745e-12 4.72239e-13 -210 6.03704e-12
          1.01416e-12 -210 -8.54533e-13 6.44937e-13 -210 -1.11314e-12 4.99284e-13 -210 -1.28604e-12 4.47689e-13 -210 -1.92713e-12
          1.60913e-12 -210 -9.25743e-13 2.44768e-12 -210 3.51282e-13 9.4841e-13 -210 1.81562e-12 -2.88506e-13 -210 3.07442e-12
          -1.7143e-12 -210 3.81543e-12 -1.10532e-12 -210 6.40123e-12 9.14463e-13 -210 -4.05916e-13 6.7858e-13 -210 -5.58524e-13
          6.83058e-13 -210 -9.99625e-13 4.14231e-13 -210 -1.81711e-12 1.97951e-12 -210 -1.43844e-12 1.82529e-12 -210 1.40572e-13
          1.32321e-12 -210 1.50866e-12 2.96088e-12 -210 2.86781e-12 1.82948e-12 -210 3.78238e-12 1.61219e-12 -210 6.37043e-12
          6.66059e-13 -210 1.79397e-13 5.62077e-13 -210 1.34291e-13 1.05228e-12 -210 6.36429e-14 1.59234e-12 -210 -6.40836e-13
          1.74606e-12 -210 -3.13158e-13 2.25807e-12 -210 6.009e-13 2.07323e-12 -210 1.59399e-12 1.51704e-13 -210 2.44035e-12
          4.27649e-13 -210 3.03106e-12 4.81962e-13 -210 6.57634e-12 2.14902e-13 -210 -8.68799e-13 1.0987e-13 -210 -5.92937e-13
          -6.99834e-14 -210 -5.286e-13 -4.66834e-13 -210 -7.87723e-13 -3.6573e-13 -210 -1.00834e-13 -8.00978e-13 -210 7.43797e-13
          -8.21189e-13 -210 1.03996e-12 -1.76643e-12 -210 1.53274e-12 -1.06043e-12 -210 1.55298e-12 -4.18799e-12 -210 3.19323e-12
          1.46547e-13 -210 -3.7087e-13 -4.98916e-13 -210 -4.54548e-13 -3.70104e-14 -210 1.1336e-13 -6.10535e-14 -210 5.26978e-13
          1.63813e-13 -210 7.88651e-13 -1.74166e-12 -210 8.67502e-13 -3.36809e-12 -210 8.14303e-13 -2.19197e-12 -210 8.50096e-13
          -1.75359e-12 -210 6.01158e-13 -4.31646e-12 -210 1.5694e-12 2.74208e-13 -210 -1.01112e-12 -6.68517e-13 -210 -1.26978e-12
          -2.07176e-13 -210 -2.08836e-13 -2.72728e-13 -210 1.54421e-12 -1.9108e-12 -210 1.7324e-12 -2.78187e-12 -210 2.03655e-12
          -2.17086e-12 -210 1.85139e-12 -3.65753e-12 -210 1.49759e-12 -4.47117e-12 -210 1.81677e-12 -5.49797e-12 -210 4.88843e-12
          5.96667e-13 -210 -1.29283e-12 -1.02951e-12 -210 -6.70449e-13 -1.19128e-12 -210 4.14859e-13 -1.49298e-12 -210 1.99794e-12
          -2.4344e-12 -210 2.31066e-12 -4.7922e-12 -210 2.119e-12 -5.43484e-12 -210 1.99169e-12 -5.05057e-12 -210 1.60099e-12
          -4.32112e-12 -210 1.41232e-12 -4.04593e-12 -210 5.00708e-12 1.01714e-12 -210 3.40499e-13 -4.43272e-13 -210 3.53715e-13
          9.74732e-14 -210 1.09932e-12 -4.55533e-13 -210 2.74428e-12 -6.99723e-13 -210 3.16181e-12 -2.0945e-12 -210 2.20792e-12
          -2.1279e-12 -210 1.10425e-12 -2.65603e-12 -210 1.09664e-13 -3.87795e-12 -210 4.67343e-13 -4.1949e-12 -210 4.20202e-12
          1.22146e-12 -210 1.31255e-12 1.47302e-13 -210 8.427e-13 1.02553e-12 -210 1.30152e-12 1.15879e-12 -210 2.84799e-12
          5.70587e-13 -210 2.52937e-12 -3.67405e-13 -210 1.07227e-12 -1.12675e-12 -210 2.73379e-13 -1.0709e-12 -210 -4.87312e-13
          5.05497e-13 -210 -2.82174e-14 -1.91852e-12 -210 3.05186e-12 1.36108e-12 -210 1.28616e-12 -2.65522e-14 -210 1.25068e-12
          8.36212e-13 -210 1.1023e-12 6.98247e-13 -210 2.03635e-12 1.12495e-12 -210 2.64524e-12 -4.60351e-13 -210 1.61586e-12
          -7.32232e-13 -210 4.77774e-13 3.25665e-13 -210 -8.72027e-13 -6.94471e-13 -210 -6.15919e-13 1.63718e-12 -210 3.12455e-12
          1.30109e-12 -210 1.66755e-12 4.09501e-13 -210 1.89492e-12 1.20971e-12 -210 1.50057e-12 1.35509e-12 -210 2.12829e-12
          1.06382e-12 -210 2.69667e-12 1.12283e-12 -210 1.2634e-12 1.81621e-12 -210 1.75803e-13 9.96357e-13 -210 -9.78438e-13
          -5.52225e-13 -210 -9.59962e-13 8.79533e-13 -210 2.44006e-12 1.3154e-12 -210 1.56124e-12 7.26213e-13 -210 1.53376e-12
          5.11321e-13 -210 9.97106e-13 3.93884e-13 -210 1.29164e-12 2.13085e-12 -210 1.82481e-12 1.66186e-12 -210 1.24617e-12
          9.70187e-13 -210 2.88074e-13 1.52825e-12 -210 -8.9134e-13 8.04317e-13 -210 -6.80361e-13 -8.1094e-13 -210 2.86205e-12
          7.63961e-13 -210 2.10226e-12 7.3346e-13 -210 1.61263e-12 1.46898e-12 -210 8.28757e-13 1.01933e-12 -210 7.44963e-13
          1.09809e-12 -210 1.8433e-12 1.548e-12 -210 1.31159e-12 1.54753e-12 -210 1.01808e-13 1.09376e-13 -210 -7.50097e-13
          7.83749e-13 -210 -4.64548e-13 1.09522e-12 -210 3.02112e-12 3.39833e-13 -210 2.49267e-13 -5.10283e-14 -210 -3.47112e-13
          2.91799e-13 -210 -5.31512e-13 3.18288e-13 -210 1.49905e-13 -2.62769e-13 -210 8.24245e-13 -9.39398e-13 -210 7.97804e-13
          -1.71105e-12 -210 4.26276e-13 -5.77544e-13 -210 8.08248e-13 -3.80668e-13 -210 7.17738e-13 -4.41584e-12 -210 2.02748e-12
          -6.84462e-14 -210 -7.11008e-13 -4.67805e-13 -210 -8.97238e-13 -2.02213e-13 -210 -9.60654e-13 -2.77909e-14 -210 -7.3528e-13
          -8.4032e-13 -210 -3.13461e-13 -2.57772e-12 -210 3.15218e-13 -2.07993e-12 -210 1.09847e-12 -1.77675e-12 -210 1.91903e-12
          -3.36356e-12 -210 1.80702e-12 -4.83468e-12 -210 2.6215e-12 1.25943e-13 -210 -2.80321e-12 -8.04884e-13 -210 -2.72e-12
          -2.39412e-13 -210 -1.50109e-12 -6.51255e-13 -210 -8.55788e-13 -2.30672e-12 -210 -5.47872e-13 -2.22682e-12 -210 1.40484e-12
          -1.68499e-12 -210 3.19671e-12 -3.36843e-12 -210 4.92105e-12 -5.75438e-12 -210 4.84193e-12 -8.45703e-12 -210 6.39207e-12
          4.56908e-13 -210 -3.52547e-12 -1.29418e-12 -210 -3.10967e-12 -9.65122e-13 -210 -2.01665e-12 -1.54569e-12 -210 -2.07631e-12
          -2.59662e-12 -210 -1.43929e-12 -4.37194e-12 -210 1.17432e-12 -5.17283e-12 -210 3.24121e-12 -5.49242e-12 -210 5.74833e-12
          -4.98327e-12 -210 5.50137e-12 -6.28495e-12 -210 7.35664e-12 8.57401e-13 -210 -2.27371e-12 -9.05154e-13 -210 -2.68356e-12
          -8.5491e-14 -210 -1.92996e-12 -1.36876e-12 -210 -2.02413e-12 -7.10675e-13 -210 -1.73794e-12 -2.49532e-12 -210 2.33541e-13
          -3.96837e-12 -210 1.82231e-12 -3.00002e-12 -210 3.6103e-12 -4.9725e-12 -210 4.84156e-12 -3.97107e-12 -210 7.27711e-12
          9.93267e-13 -210 -1.49442e-12 -7.00333e-13 -210 -2.84818e-12 1.20704e-12 -210 -2.13347e-12 1.1778e-12 -210 -2.05997e-12
          3.98295e-13 -210 -2.58286e-12 -8.26447e-13 -210 -1.51555e-12 -8.69546e-13 -210 5.50578e-13 -1.33706e-12 -210 2.8872e-12
          -2.87105e-12 -210 3.50694e-12 -3.70338e-12 -210 5.47286e-12 1.23821e-12 -210 -8.69706e-13 -6.92417e-13 -210 -2.42037e-12
          8.65408e-13 -210 -2.53477e-12 1.07516e-12 -210 -2.49031e-12 1.42066e-12 -210 -2.55893e-12 -6.94019e-14 -210 -1.34581e-12
          -3.93708e-13 -210 -2.08874e-14 -1.31411e-12 -210 1.67541e-12 -1.7115e-12 -210 3.18957e-12 4.38655e-13 -210 6.07447e-12
          1.13678e-12 -210 -2.2051e-13 -3.74359e-13 -210 -1.80965e-12 1.14129e-12 -210 -1.77458e-12 1.94471e-12 -210 -1.98366e-12
          2.20181e-12 -210 -2.25381e-12 5.63229e-13 -210 -1.54578e-12 3.9726e-13 -210 -7.22812e-13 1.85414e-12 -210 1.1739e-12
          -3.41101e-14 -210 2.08463e-12 2.29649e-12 -210 4.02436e-12 9.79064e-13 -210 4.31767e-13 -1.32952e-13 -210 -1.44432e-12
          1.13216e-12 -210 -1.63238e-12 1.1673e-12 -210 -1.79328e-12 1.2097e-12 -210 -2.33853e-12 1.72603e-13 -210 -2.06264e-12
          -2.08006e-13 -210 -1.05222e-12 -1.29602e-12 -210 2.73866e-13 -4.55754e-13 -210 9.68093e-13 -1.1718e-12 -210 4.34125e-12
          5.97504e-13 -210 1.10618e-12 1.25087e-13 -210 -5.98464e-13 1.32799e-12 -210 -9.17981e-13 1.7551e-12 -210 -1.26181e-12
          1.90356e-12 -210 -1.58323e-12 1.51583e-12 -210 -1.44951e-12 3.9469e-13 -210 -1.39166e-12 -1.26424e-12 -210 -2.8026e-13
          2.59611e-12 -210 1.90578e-13 1.7951e-12 -210 3.32327e-12 1.60242e-13 -210 -1.24456e-13 -1.82803e-13 -210 -1.02727e-12
          -1.43061e-13 -210 -1.09187e-12 6.33229e-13 -210 -3.11635e-13 5.27316e-13 -210 -4.20272e-13 -1.18399e-12 -210 -5.34813e-14
          -1.85614e-12 -210 2.79088e-13 -1.49944e-12 -210 1.12639e-12 -1.71746e-12 -210 1.22138e-12 -4.34643e-12 -210 2.76362e-12
          1.0821e-13 -210 -1.34731e-13 -1.8051e-13 -210 -1.76072e-13 -4.30259e-13 -210 -3.64427e-13 -4.85589e-13 -210 6.10326e-13
          -7.82017e-13 -210 9.53683e-13 -2.71296e-12 -210 7.17905e-13 -3.29871e-12 -210 1.15482e-12 -2.65084e-12 -210 1.27216e-12
          -2.11268e-12 -210 1.29775e-12 -2.16854e-12 -210 2.89813e-12 4.25917e-13 -210 -1.58528e-12 -3.84409e-13 -210 -5.8077e-13
          -1.00355e-12 -210 2.91874e-13 -2.25225e-12 -210 1.72175e-12 -2.24709e-12 -210 3.1084e-12 -1.82881e-12 -210 3.43313e-12
          -2.58986e-12 -210 3.87401e-12 -3.12613e-12 -210 3.82306e-12 -5.79408e-12 -210 3.19818e-12 -8.03347e-12 -210 5.45973e-12
          7.32795e-13 -210 -1.35695e-12 -4.62711e-13 -210 6.41566e-13 -1.05431e-12 -210 1.60108e-12 -1.58691e-12 -210 2.13913e-12
          -3.56127e-12 -210 3.73218e-12 -4.19374e-12 -210 3.99819e-12 -4.40746e-12 -210 4.8204e-12 -5.40288e-12 -210 3.87626e-12
          -7.59484e-12 -210 3.38791e-12 -7.28307e-12 -210 5.88375e-12 1.09209e-12 -210 -6.11721e-13 -9.12839e-14 -210 1.64409e-12
          -7.76139e-13 -210 2.09236e-12 -2.36088e-12 -210 2.07871e-12 -1.56161e-12 -210 2.9207e-12 -8.47716e-13 -210 3.14217e-12
          -2.69572e-12 -210 3.99719e-12 -2.7302e-12 -210 4.20827e-12 -5.49756e-12 -210 3.23793e-12 -4.16164e-12 -210 4.54692e-12
          1.24938e-12 -210 -4.19988e-13 4.38813e-13 -210 1.73346e-12 7.40118e-13 -210 2.72991e-12 3.56015e-13 -210 3.0684e-12
          -4.34581e-13 -210 2.76381e-12 4.7826e-13 -210 2.79037e-12 6.40775e-14 -210 3.54491e-12 -1.09281e-12 -210 2.78983e-12
          -4.32132e-12 -210 1.64567e-12 -1.71312e-12 -210 3.49537e-12 1.32873e-12 -210 1.66134e-13 5.16545e-13 -210 1.85823e-12
          7.04201e-13 -210 2.59687e-12 5.39001e-13 -210 2.42415e-12 7.69686e-14 -210 2.39301e-12 2.45089e-13 -210 1.91754e-12
          -3.10395e-13 -210 2.22127e-12 1.09054e-13 -210 1.92557e-12 -1.7722e-12 -210 1.76724e-12 -2.2741e-12 -210 3.25573e-12
          1.07853e-12 -210 1.07547e-12 2.36235e-13 -210 2.3236e-12 1.05601e-12 -210 3.39618e-12 1.21431e-12 -210 2.29327e-12
          2.30315e-12 -210 1.72921e-12 1.30004e-12 -210 1.93875e-12 1.20574e-12 -210 2.38976e-12 1.58295e-12 -210 1.37445e-12
          -1.64067e-12 -210 1.21213e-13 -5.70724e-13 -210 2.48245e-12 9.84678e-13 -210 7.25282e-13 6.93104e-13 -210 2.25513e-12
          1.87515e-12 -210 2.45714e-12 1.16597e-12 -210 1.8046e-12 -3.05794e-14 -210 8.17065e-13 8.30335e-13 -210 6.53466e-13
          1.15762e-12 -210 1.15686e-12 2.02654e-12 -210 7.93344e-13 -2.83487e-13 -210 3.11695e-13 7.19367e-13 -210 2.6548e-12
          6.83794e-13 -210 1.11754e-12 2.92142e-13 -210 1.42779e-12 1.27138e-12 -210 1.97687e-12 2.1896e-12 -210 9.51573e-13
          1.9128e-12 -210 -4.35102e-14 2.6918e-12 -210 6.57268e-13 6.39634e-13 -210 7.96107e-13 3.55264e-13 -210 4.44038e-13
          1.40709e-12 -210 -6.02175e-13 -1.03426e-12 -210 2.06042e-12 2.09895e-13 -210 -3.51978e-13 1.72348e-13 -210 2.44267e-13
          -1.82871e-13 -210 1.87453e-13 -1.18806e-12 -210 2.85736e-13 -1.15389e-12 -210 9.1528e-13 -5.70786e-13 -210 7.57659e-13
          -1.42454e-12 -210 1.29122e-12 -2.8523e-12 -210 1.74611e-12 -2.92678e-12 -210 1.4249e-12 -4.57853e-12 -210 2.36539e-12
          2.39737e-14 -210 8.47896e-13 -5.00203e-13 -210 -9.07664e-13 -8.56924e-13 -210 -8.70096e-13 -9.75204e-13 -210 -3.45762e-13
          -2.13096e-13 -210 5.68091e-13 -1.96865e-12 -210 2.57591e-13 -2.33144e-12 -210 3.47734e-13 -2.74154e-12 -210 2.46687e-13
          -2.39795e-12 -210 7.67338e-14 -1.5584e-12 -210 2.9305e-12 1.59442e-13 -210 -7.85546e-13 -1.47134e-12 -210 -2.64053e-12
          -1.92931e-12 -210 -1.98552e-12 -1.8567e-12 -210 -7.03059e-13 -2.68552e-12 -210 7.98931e-13 -4.41283e-12 -210 1.35606e-12
          -4.96996e-12 -210 9.07519e-13 -3.8535e-12 -210 1.9472e-12 -5.18246e-12 -210 2.45633e-12 -5.74685e-12 -210 5.81941e-12
          5.20685e-13 -210 -1.02554e-13 -1.46849e-12 -210 -1.93921e-12 -1.48692e-12 -210 -2.44451e-12 -1.77477e-12 -210 -1.69722e-12
          -3.51804e-12 -210 -4.9014e-13 -4.69766e-12 -210 1.79423e-13 -4.76977e-12 -210 -6.61989e-13 -5.59924e-12 -210 -5.94167e-13
          -6.98159e-12 -210 9.59574e-13 -8.28444e-12 -210 6.44669e-12 1.29138e-12 -210 9.63266e-14 -6.66311e-13 -210 -1.20511e-12
          -1.41592e-12 -210 -3.07995e-12 -1.71385e-12 -210 -3.27743e-12 -1.67864e-12 -210 -2.68945e-12 -3.15827e-12 -210 -3.02901e-12
          -2.82055e-12 -210 -2.57394e-12 -4.16424e-12 -210 -1.57118e-12 -4.95915e-12 -210 4.49052e-13 -5.05673e-12 -210 4.04425e-12
          1.69841e-12 -210 -3.42618e-14 2.33924e-13 -210 -9.67495e-13 5.13624e-13 -210 -2.95781e-12 1.68795e-13 -210 -3.04827e-12
          4.06333e-13 -210 -3.07598e-12 6.79908e-14 -210 -3.86966e-12 1.72722e-13 -210 -4.11187e-12 -1.03052e-12 -210 -3.4307e-12
          -2.55467e-12 -210 -1.19214e-12 -2.07544e-12 -210 2.53148e-12 1.76711e-12 -210 4.17826e-13 4.66234e-13 -210 -8.00178e-13
          3.29888e-13 -210 -2.40019e-12 2.28799e-13 -210 -2.62082e-12 3.1228e-13 -210 -3.10133e-12 -6.18794e-13 -210 -4.20073e-12
          -2.19875e-13 -210 -4.10652e-12 -1.70228e-13 -210 -3.59592e-12 -1.8445e-12 -210 -2.19437e-12 7.00376e-14 -210 1.8977e-12
          1.83525e-12 -210 7.23497e-13 9.10193e-13 -210 1.4835e-13 1.04451e-12 -210 -1.56541e-12 8.37496e-13 -210 -3.25957e-12
          9.05931e-13 -210 -3.85411e-12 1.61516e-12 -210 -4.37151e-12 2.62612e-12 -210 -3.33848e-12 2.14414e-13 -210 -3.33673e-12
          -1.15021e-12 -210 -3.47774e-12 -1.44718e-12 -210 3.13064e-13 1.35224e-12 -210 7.93711e-13 9.18923e-13 -210 1.2469e-12
          1.16746e-12 -210 -3.63417e-13 1.47911e-13 -210 -1.43662e-12 5.61069e-13 -210 -2.51001e-12 8.24381e-13 -210 -3.40846e-12
          2.15435e-12 -210 -3.00049e-12 2.5495e-12 -210 -2.34151e-12 3.23919e-13 -210 -1.73535e-12 -5.76502e-13 -210 -7.51489e-14
          1.19699e-12 -210 9.67295e-13 1.20978e-12 -210 6.22126e-13 1.35437e-12 -210 -2.36573e-13 8.28969e-13 -210 -1.26316e-12
          1.52662e-12 -210 -2.50458e-12 1.4729e-12 -210 -1.94509e-12 1.121e-12 -210 -1.76929e-12 2.0628e-12 -210 -1.81574e-12
          7.29573e-13 -210 -2.19458e-12 3.65387e-13 -210 -3.30011e-13 2.81634e-13 -210 -6.68161e-13 6.56753e-14 -210 -1.18023e-12
          -7.82298e-14 -210 -1.26441e-12 -1.33401e-12 -210 -2.92264e-13 -1.13368e-12 -210 -4.16949e-14 -1.0152e-12 -210 -5.92831e-13
          -2.1693e-12 -210 7.3333e-14 -3.33497e-12 -210 7.46812e-13 -2.78377e-12 -210 3.18088e-13 -3.01351e-12 -210 2.45543e-12
          -1.16622e-13 -210 1.14563e-12 -1.55549e-13 -210 2.49826e-13 4.15594e-13 -210 8.83136e-13 -1.19888e-13 -210 1.06389e-12
          -6.89007e-13 -210 9.9266e-13 -1.39753e-12 -210 1.12044e-12 -9.91992e-13 -210 2.67413e-13 -1.16489e-12 -210 -1.96215e-13
          -1.20859e-12 -210 -7.54261e-13 -2.0724e-12 -210 6.20905e-13 -4.32166e-13 -210 2.6673e-13 -1.00569e-12 -210 1.05197e-14
          2.3175e-13 -210 1.45282e-12 3.95834e-13 -210 2.47298e-12 -2.11116e-12 -210 2.09058e-12 -3.87591e-12 -210 2.28077e-12
          -4.19297e-12 -210 2.05137e-12 -5.4561e-12 -210 2.70072e-12 -4.13435e-12 -210 9.95196e-13 -2.44794e-12 -210 8.60782e-13
          -2.26032e-13 -210 1.6951e-12 -1.0719e-12 -210 2.6665e-13 -6.68376e-13 -210 7.89318e-13 -6.74848e-13 -210 2.56929e-12
          -1.5103e-12 -210 1.81629e-12 -2.00138e-12 -210 1.41706e-12 -1.26376e-12 -210 9.49968e-13 -2.17954e-12 -210 1.17057e-12
          -3.65826e-12 -210 -5.28905e-13 -6.0156e-12 -210 1.67387e-12 3.94415e-13 -210 1.35259e-12 -2.34637e-13 -210 1.19281e-12
          5.32503e-13 -210 9.4236e-14 1.53942e-12 -210 1.24501e-12 1.07511e-12 -210 7.87757e-13 -1.80716e-12 -210 -1.87499e-13
          -2.50651e-12 -210 -6.781e-13 -1.38448e-12 -210 -1.02228e-12 -2.91049e-13 -210 -1.76873e-12 -2.23438e-12 -210 -5.40318e-13
          5.42563e-13 -210 2.4386e-12 2.99442e-13 -210 1.0308e-12 2.15298e-12 -210 6.2979e-13 2.67596e-12 -210 2.87487e-13
          1.21419e-12 -210 -6.9098e-13 1.27973e-12 -210 -1.08055e-12 2.16721e-12 -210 -3.0518e-12 1.17232e-12 -210 -3.24142e-12
          5.73044e-13 -210 -3.04787e-12 -1.56097e-13 -210 -1.10239e-12 1.02464e-12 -210 2.15505e-12 7.32073e-13 -210 8.97952e-13
          1.81736e-12 -210 -4.00784e-13 2.56037e-12 -210 -1.99237e-13 2.97564e-12 -210 -9.70677e-13 2.15138e-12 -210 -2.01473e-12
          2.08875e-12 -210 -4.17036e-12 1.29015e-12 -210 -5.28609e-12 1.10562e-13 -210 -3.78836e-12 -9.23756e-13 -210 -1.09811e-13
          1.04115e-12 -210 2.15177e-12 1.3344e-12 -210 1.03684e-12 2.2139e-12 -210 -2.6815e-13 3.26993e-12 -210 -1.54329e-12
          2.64148e-12 -210 -2.18059e-12 2.37716e-12 -210 -3.49346e-12 2.4603e-12 -210 -5.71702e-12 1.88244e-12 -210 -6.78413e-12
          1.9599e-12 -210 -6.11338e-12 2.35581e-12 -210 -1.07864e-12 8.41363e-13 -210 3.94305e-12 1.47703e-12 -210 1.84965e-12
          2.3675e-12 -210 2.74893e-13 3.09716e-12 -210 -1.09358e-12 4.55238e-12 -210 -2.43008e-12 4.54526e-12 -210 -3.16327e-12
          4.58279e-12 -210 -6.05107e-12 3.82271e-12 -210 -7.41561e-12 2.3276e-12 -210 -6.72349e-12 5.76504e-13 -210 -1.283e-12
          8.62113e-13 -210 3.55172e-12 1.60964e-12 -210 1.25864e-12 3.1176e-12 -210 -1.86347e-13 3.83006e-12 -210 -1.668e-12
          3.12609e-12 -210 -3.05227e-12 2.39889e-12 -210 -3.89209e-12 3.35348e-12 -210 -7.10336e-12 3.88635e-12 -210 -8.5066e-12
          3.20994e-12 -210 -7.43696e-12 1.75721e-12 -210 -1.75003e-12 2.02129e-13 -210 1.84928e-12 4.64919e-13 -210 -5.78009e-13
          1.07159e-12 -210 -9.63083e-13 1.09726e-12 -210 -3.39372e-13 1.13599e-12 -210 -5.21213e-13 8.15714e-14 -210 -1.4476e-12
          -8.77519e-13 -210 -1.78324e-12 -6.84227e-13 -210 -2.48466e-12 1.63352e-13 -210 -2.16892e-12 -1.96023e-12 -210 8.65417e-13
        </DataArray>
        <DataArray type="Float32" Name="stress Z" NumberOfComponents="3" format="ascii">
          -1.3915e-10 -5.63547e-13 -30 -1.53033e-11 -1.19691e-12 -30 1.45441e-11 -1.69081e-12 -30 2.38433e-11 -1.65241e-12 -30
          2.28032e-11 -6.76121e-13 -30 1.59642e-11 -3.21169e-13 -30 8.11206e-12 -1.03624e-12 -30 -8.99559e-15 -1.71299e-12 -30
          -8.85424e-12 -2.23946e-12 -30 -1.54956e-11 -1.16884e-12 -30 -1.39323e-10 -1.96932e-12 -30 -1.52938e-11 -3.70945e-12 -30
          1.4602e-11 -5.19803e-12 -30 2.42194e-11 -4.99075e-12 -30 2.33195e-11 -2.16358e-12 -30 1.61234e-11 -1.09292e-12 -30
          8.05054e-12 -3.38462e-12 -30 5.46146e-13 -5.25253e-12 -30 -8.40808e-12 -6.95612e-12 -30 -1.4539e-11 -3.48119e-12 -30
          -1.396e-10 -2.21081e-12 -30 -1.52366e-11 -4.08515e-12 -30 1.47355e-11 -5.56619e-12 -30 2.4656e-11 -5.23461e-12 -30
          2.39086e-11 -2.25068e-12 -30 1.65197e-11 -1.14989e-12 -30 8.2747e-12 -3.39475e-12 -30 1.37436e-12 -4.98921e-12 -30
          -7.91932e-12 -6.61341e-12 -30 -1.30208e-11 -3.39577e-12 -30 -1.39902e-10 -1.75728e-12 -30 -1.50827e-11 -2.8318e-12 -30
          1.49725e-11 -3.32484e-12 -30 2.52132e-11 -3.18304e-12 -30 2.45809e-11 -1.61328e-12 -30 1.68541e-11 -8.47063e-13 -30
          8.66203e-12 -1.72809e-12 -30 2.22625e-12 -1.91602e-12 -30 -7.25344e-12 -2.78615e-12 -30 -1.07043e-11 -1.45896e-12 -30
          -1.40153e-10 -1.52162e-12 -30 -1.49036e-11 -2.00473e-12 -30 1.52633e-11 -1.76039e-12 -30 2.57704e-11 -1.55914e-12 -30
          2.50071e-11 -1.01888e-12 -30 1.74048e-11 -6.34718e-13 -30 9.2486e-12 -4.4977e-13 -30 2.96141e-12 5.40215e-13 -30
          -6.27778e-12 2.86823e-13 -30 -8.83822e-12 3.69126e-13 -30 -1.40378e-10 -1.39017e-12 -30 -1.4698e-11 -1.45305e-12 -30
          1.55448e-11 -5.31593e-13 -30 2.61078e-11 -3.55139e-13 -30 2.52293e-11 -7.84932e-13 -30 1.78193e-11 -5.26302e-13 -30
          9.72258e-12 5.82534e-13 -30 3.55956e-12 2.25626e-12 -30 -5.33469e-12 2.56577e-12 -30 -6.61145e-12 1.93762e-12 -30
          -1.40555e-10 -1.20352e-12 -30 -1.45208e-11 -1.07954e-12 -30 1.58852e-11 2.01169e-13 -30 2.64059e-11 5.48035e-13 -30
          2.56709e-11 -4.72633e-13 -30 1.84751e-11 -5.32508e-13 -30 1.02144e-11 1.20932e-12 -30 4.16816e-12 3.51134e-12 -30
          -4.55849e-12 4.25201e-12 -30 -5.0063e-12 3.2546e-12 -30 -1.40707e-10 -1.13938e-12 -30 -1.42731e-11 -7.89583e-13 -30
          1.63179e-11 7.66955e-13 -30 2.67971e-11 1.05249e-12 -30 2.61458e-11 -3.15556e-13 -30 1.91758e-11 -5.16187e-13 -30
          1.0943e-11 1.49598e-12 -30 4.99472e-12 4.03032e-12 -30 -3.29466e-12 4.89536e-12 -30 -2.7055e-12 3.93885e-12 -30
          -1.4079e-10 -1.03534e-12 -30 -1.39939e-11 -5.29869e-13 -30 1.673e-11 1.00501e-12 -30 2.71795e-11 1.14384e-12 -30
          2.65385e-11 -2.31785e-13 -30 1.99292e-11 -4.17135e-13 -30 1.17831e-11 1.55043e-12 -30 5.76917e-12 4.02208e-12 -30
          -2.18469e-12 4.78951e-12 -30 -1.11163e-12 4.40662e-12 -30 -1.40853e-10 -1.13729e-12 -30 -1.376e-11 -1.26293e-12 -30
          1.70686e-11 -4.24513e-13 -30 2.75446e-11 -2.44809e-13 -30 2.67673e-11 -9.95327e-13 -30 2.04923e-11 -1.16648e-12 -30
          1.23972e-11 -1.6297e-13 -30 6.36236e-12 9.91949e-13 -30 -1.13737e-12 1.09977e-12 -30 1.74742e-13 8.75886e-13 -30
          -5.37378e-11 -2.99936e-13 -30 -2.94673e-11 -3.90061e-13 -30 2.3891e-11 -3.28011e-13 -30 4.98052e-11 -1.26271e-13 -30
          5.71838e-11 -3.7735e-13 -30 5.23903e-11 -4.80115e-13 -30 3.80884e-11 -3.01058e-13 -30 2.11607e-11 -4.94094e-13 -30
          9.42076e-12 -3.86552e-13 -30 -2.14219e-12 8.38373e-14 -30 -5.37771e-11 -1.82913e-12 -30 -2.9488e-11 -1.92462e-12 -30
          2.39754e-11 -1.76648e-12 -30 5.0056e-11 -1.20936e-12 -30 5.74367e-11 -1.01556e-12 -30 5.26525e-11 -1.23098e-12 -30
          3.83382e-11 -1.49217e-12 -30 2.13278e-11 -2.15667e-12 -30 9.4555e-12 -2.11798e-12 -30 -1.99537e-12 -6.1774e-13 -30
          -5.38722e-11 -1.53926e-12 -30 -2.96317e-11 -1.83461e-12 -30 2.40455e-11 -2.08059e-12 -30 5.0312e-11 -1.71094e-12 -30
          5.77817e-11 -1.04662e-12 -30 5.27704e-11 -9.96398e-13 -30 3.84325e-11 -1.81093e-12 -30 2.11463e-11 -3.45453e-12 -30
          9.50389e-12 -3.73403e-12 -30 -1.97303e-12 -8.12047e-13 -30 -5.39522e-11 -7.48009e-13 -30 -2.9758e-11 -1.09668e-12 -30
          2.41311e-11 -1.63606e-12 -30 5.06665e-11 -1.36238e-12 -30 5.80908e-11 -1.64923e-13 -30 5.28054e-11 -1.63782e-13 -30
          3.86384e-11 -1.66588e-12 -30 2.14405e-11 -3.75023e-12 -30 9.65113e-12 -4.219e-12 -30 -2.15253e-12 -6.39927e-14 -30
          -5.40186e-11 -1.42383e-13 -30 -2.99464e-11 -4.05101e-13 -30 2.40315e-11 -1.41317e-12 -30 5.09446e-11 -1.20263e-12 -30
          5.85083e-11 2.92815e-13 -30 5.27532e-11 4.73478e-13 -30 3.87679e-11 -1.36752e-12 -30 2.17631e-11 -3.6913e-12 -30
          9.77459e-12 -4.42488e-12 -30 -1.81401e-12 3.81004e-13 -30 -5.40618e-11 6.99894e-14 -30 -3.01731e-11 1.83487e-13 -30
          2.39405e-11 -8.23343e-13 -30 5.12703e-11 -8.70304e-13 -30 5.90433e-11 5.23798e-13 -30 5.28752e-11 8.67929e-13 -30
          3.88229e-11 -9.41876e-13 -30 2.19224e-11 -3.30243e-12 -30 1.00484e-11 -4.24071e-12 -30 -1.36609e-12 1.25117e-12 -30
          -5.4073e-11 2.53001e-13 -30 -3.02758e-11 5.32207e-13 -30 2.38704e-11 -3.34902e-13 -30 5.15023e-11 -3.41002e-13 -30
          5.93347e-11 9.38166e-13 -30 5.28941e-11 1.22159e-12 -30 3.87499e-11 -3.85379e-13 -30 2.21298e-11 -2.23462e-12 -30
          9.85834e-12 -2.83249e-12 -30 -1.02074e-12 2.72516e-12 -30 -5.40594e-11 5.17023e-13 -30 -3.02804e-11 1.12868e-12 -30
          2.38278e-11 6.47403e-13 -30 5.17397e-11 5.23684e-13 -30 5.94141e-11 1.28893e-12 -30 5.30088e-11 1.41797e-12 -30
          3.87509e-11 4.10566e-13 -30 2.21674e-11 -4.9706e-13 -30 9.73343e-12 -1.14389e-12 -30 -6.39411e-13 4.21738e-12 -30
          -5.40017e-11 4.03604e-13 -30 -3.02796e-11 1.43128e-12 -30 2.37992e-11 1.42282e-12 -30 5.18332e-11 1.15733e-12 -30
          5.94677e-11 1.83891e-12 -30 5.28269e-11 2.0835e-12 -30 3.88926e-11 1.48366e-12 -30 2.24671e-11 1.54462e-12 -30
          9.31261e-12 1.14691e-12 -30 3.78435e-14 6.43524e-12 -30 -5.3969e-11 -4.94556e-13 -30 -3.02874e-11 -2.57471e-13 -30
          2.37537e-11 -4.60661e-13 -30 5.18508e-11 -2.84542e-13 -30 5.95729e-11 1.50108e-13 -30 5.30169e-11 2.77669e-13 -30
          3.92007e-11 -7.65619e-14 -30 2.26664e-11 -2.15027e-13 -30 8.80265e-12 -5.65837e-13 -30 5.3167e-13 1.68877e-12 -30
          -1.29222e-11 -7.29304e-13 -30 -2.19575e-12 -5.31468e-13 -30 3.1523e-11 -9.28563e-14 -30 5.91728e-11 1.1441e-13 -30
          6.86607e-11 -2.37951e-13 -30 6.24935e-11 -3.2926e-13 -30 4.6787e-11 3.74184e-13 -30 2.9782e-11 1.04071e-12 -30
          1.40594e-11 1.25565e-12 -30 1.87005e-12 1.49955e-12 -30 -1.28724e-11 -2.41823e-12 -30 -2.02618e-12 -2.21209e-12 -30
          3.16792e-11 -1.18696e-12 -30 5.90884e-11 -4.1141e-13 -30 6.8408e-11 -8.31845e-13 -30 6.24401e-11 -6.51381e-13 -30
          4.6843e-11 9.94504e-13 -30 2.9666e-11 2.71079e-12 -30 1.39237e-11 3.18103e-12 -30 2.02328e-12 3.62122e-12 -30
          -1.27394e-11 -2.51243e-12 -30 -1.7286e-12 -2.5782e-12 -30 3.19122e-11 -1.20056e-12 -30 5.90016e-11 -4.21397e-13 -30
          6.81822e-11 -1.15452e-12 -30 6.23417e-11 -9.05914e-13 -30 4.68863e-11 1.41935e-12 -30 2.98257e-11 3.55711e-12 -30
          1.38499e-11 4.61986e-12 -30 2.53097e-12 5.05052e-12 -30 -1.26906e-11 -1.81632e-12 -30 -1.4517e-12 -2.49051e-12 -30
          3.21447e-11 -1.29654e-12 -30 5.89101e-11 -2.4927e-13 -30 6.80428e-11 -5.94572e-13 -30 6.25855e-11 -5.82916e-13 -30
          4.67316e-11 1.6045e-12 -30 2.94729e-11 3.88582e-12 -30 1.41613e-11 5.70721e-12 -30 3.17886e-12 6.09344e-12 -30
          -1.2672e-11 -9.84583e-13 -30 -1.23477e-12 -2.03669e-12 -30 3.22615e-11 -1.44454e-12 -30 5.86467e-11 -4.87824e-13 -30
          6.77899e-11 -6.33783e-13 -30 6.23748e-11 -3.67536e-13 -30 4.66385e-11 1.56775e-12 -30 2.9203e-11 3.59242e-12 -30
          1.40677e-11 6.01294e-12 -30 3.36208e-12 6.21625e-12 -30 -1.2635e-11 -5.8448e-13 -30 -1.16508e-12 -1.51569e-12 -30
          3.24369e-11 -1.19126e-12 -30 5.86033e-11 -4.73087e-13 -30 6.76268e-11 -4.72197e-13 -30 6.22633e-11 -1.27319e-13 -30
          4.63806e-11 1.63173e-12 -30 2.88093e-11 3.34876e-12 -30 1.4127e-11 5.61822e-12 -30 3.72934e-12 6.45603e-12 -30
          -1.25909e-11 -8.87044e-14 -30 -1.18824e-12 -1.316e-12 -30 3.25423e-11 -1.27613e-12 -30 5.85172e-11 -5.4164e-13 -30
          6.76547e-11 -2.73369e-13 -30 6.21159e-11 1.75697e-13 -30 4.64172e-11 1.58358e-12 -30 2.86109e-11 2.78576e-12 -30
          1.4231e-11 5.04537e-12 -30 4.19153e-12 6.36683e-12 -30 -1.2563e-11 3.66364e-13 -30 -1.2387e-12 -5.11845e-13 -30
          3.25196e-11 -7.80534e-13 -30 5.84835e-11 -1.43428e-13 -30 6.75577e-11 2.68039e-13 -30 6.19393e-11 5.19978e-13 -30
          4.64166e-11 1.62006e-12 -30 2.84441e-11 2.46782e-12 -30 1.43617e-11 3.92953e-12 -30 4.64276e-12 5.9214e-12 -30
          -1.25274e-11 6.82497e-13 -30 -1.31149e-12 -1.76152e-13 -30 3.25783e-11 -6.01664e-13 -30 5.8712e-11 -1.57552e-13 -30
          6.76117e-11 6.74179e-13 -30 6.16479e-11 9.3982e-13 -30 4.61968e-11 1.43875e-12 -30 2.8467e-11 1.92868e-12 -30
          1.47387e-11 3.01316e-12 -30 5.08075e-12 5.74096e-12 -30 -1.24999e-11 -2.58501e-13 -30 -1.36133e-12 -8.48064e-13 -30
          3.2576e-11 -1.02733e-12 -30 5.87224e-11 -4.61654e-13 -30 6.77306e-11 3.4763e-15 -30 6.15687e-11 1.69538e-14 -30
          4.58769e-11 2.84676e-13 -30 2.84021e-11 3.35965e-13 -30 1.50367e-11 4.90257e-13 -30 5.60601e-12 1.62067e-12 -30
          2.88314e-12 -3.62548e-13 -30 1.87518e-11 -1.28388e-13 -30 4.4262e-11 1.12354e-14 -30 6.58452e-11 -1.67195e-13 -30
          7.34234e-11 2.32235e-13 -30 6.58502e-11 5.37619e-13 -30 5.05531e-11 5.51569e-13 -30 3.24321e-11 2.87314e-13 -30
          1.87927e-11 -4.96094e-13 -30 3.51345e-12 6.47817e-13 -30 2.89555e-12 -1.7905e-12 -30 1.87733e-11 -5.63355e-13 -30
          4.41934e-11 -1.29132e-13 -30 6.59743e-11 -1.83638e-13 -30 7.36943e-11 4.44131e-13 -30 6.60388e-11 1.33365e-12 -30
          5.07802e-11 1.08639e-12 -30 3.29636e-11 7.64273e-13 -30 1.86624e-11 -5.85845e-13 -30 3.8344e-12 2.51147e-12 -30
          2.86018e-12 -1.57748e-12 -30 1.87609e-11 -3.16973e-13 -30 4.40941e-11 4.21755e-13 -30 6.6009e-11 8.57973e-13 -30
          7.37986e-11 1.1683e-12 -30 6.6186e-11 1.57209e-12 -30 5.12604e-11 1.45271e-12 -30 3.3426e-11 1.58126e-12 -30
          1.82712e-11 -4.60998e-13 -30 4.08172e-12 3.31196e-12 -30 2.80518e-12 -1.03932e-12 -30 1.87662e-11 7.44361e-13 -30
          4.40552e-11 1.70883e-12 -30 6.61641e-11 1.41493e-12 -30 7.39595e-11 1.34276e-12 -30 6.65306e-11 1.78844e-12 -30
          5.17042e-11 1.99843e-12 -30 3.38693e-11 2.28937e-12 -30 1.79978e-11 5.22731e-13 -30 4.36048e-12 3.96748e-12 -30
          2.74355e-12 -1.55872e-13 -30 1.88229e-11 1.60305e-12 -30 4.40561e-11 2.74434e-12 -30 6.6275e-11 2.45168e-12 -30
          7.4129e-11 1.53068e-12 -30 6.69785e-11 1.51791e-12 -30 5.22414e-11 1.49337e-12 -30 3.43797e-11 2.26405e-12 -30
          1.79908e-11 1.08988e-12 -30 4.5466e-12 4.2126e-12 -30 2.72163e-12 2.29958e-13 -30 1.8899e-11 1.90753e-12 -30
          4.4169e-11 2.96105e-12 -30 6.62315e-11 2.81629e-12 -30 7.41046e-11 1.8287e-12 -30 6.72973e-11 2.00732e-12 -30
          5.26074e-11 2.03055e-12 -30 3.50017e-11 2.62788e-12 -30 1.79755e-11 1.66564e-12 -30 4.64421e-12 4.61444e-12 -30
          2.68896e-12 3.27479e-13 -30 1.90144e-11 1.78289e-12 -30 4.42012e-11 2.9839e-12 -30 6.61567e-11 2.64312e-12 -30
          7.39988e-11 1.50669e-12 -30 6.761e-11 1.36784e-12 -30 5.27923e-11 1.56342e-12 -30 3.53301e-11 2.58191e-12 -30
          1.77563e-11 2.15284e-12 -30 4.33691e-12 4.8702e-12 -30 2.62113e-12 7.97069e-13 -30 1.90727e-11 1.80006e-12 -30
          4.4255e-11 2.5566e-12 -30 6.59619e-11 2.22207e-12 -30 7.4122e-11 1.2041e-12 -30 6.79897e-11 8.75185e-13 -30
          5.3076e-11 1.17866e-12 -30 3.56494e-11 2.23379e-12 -30 1.75474e-11 2.1408e-12 -30 4.32946e-12 4.94489e-12 -30
          2.55475e-12 1.10826e-12 -30 1.91281e-11 1.69408e-12 -30 4.43208e-11 2.24465e-12 -30 6.5863e-11 2.17238e-12 -30
          7.4117e-11 9.71659e-13 -30 6.83247e-11 5.16777e-13 -30 5.32791e-11 1.06546e-12 -30 3.5838e-11 2.09304e-12 -30
          1.72645e-11 2.16085e-12 -30 4.58093e-12 5.31308e-12 -30 2.4956e-12 -7.20185e-13 -30 1.91513e-11 -3.98764e-13 -30
          4.43671e-11 2.89444e-13 -30 6.57567e-11 3.31731e-13 -30 7.41208e-11 -8.17765e-14 -30 6.84968e-11 2.32242e-13 -30
          5.35285e-11 6.7952e-13 -30 3.5716e-11 1.02792e-12 -30 1.70085e-11 8.98372e-13 -30 4.59168e-12 2.18835e-12 -30
          9.87178e-12 -2.66671e-13 -30 3.21529e-11 -6.36435e-13 -30 5.5235e-11 -1.1875e-12 -30 7.02177e-11 -9.11612e-13 -30
          7.24891e-11 6.82194e-15 -30 6.27338e-11 6.11415e-13 -30 4.54197e-11 3.88259e-13 -30 2.72076e-11 2.8544e-13 -30
          1.29338e-11 7.62083e-13 -30 -2.2003e-12 1.26077e-12 -30 9.98035e-12 -1.66923e-12 -30 3.21835e-11 -2.74176e-12 -30
          5.54381e-11 -3.04408e-12 -30 7.03625e-11 -1.46625e-12 -30 7.25723e-11 -2.72945e-13 -30 6.26395e-11 6.46172e-13 -30
          4.50119e-11 7.92244e-13 -30 2.68007e-11 3.77343e-13 -30 1.31104e-11 1.85223e-12 -30 -1.71847e-12 3.92975e-12 -30
          1.00976e-11 -2.0985e-12 -30 3.22212e-11 -3.1955e-12 -30 5.56014e-11 -4.05502e-12 -30 7.06255e-11 -2.62192e-12 -30
          7.2564e-11 -3.30903e-13 -30 6.22826e-11 7.28273e-13 -30 4.47108e-11 1.16245e-12 -30 2.6531e-11 1.29849e-12 -30
          1.31207e-11 2.26115e-12 -30 -8.52823e-13 4.6573e-12 -30 1.0224e-11 -1.76937e-12 -30 3.23287e-11 -2.73375e-12 -30
          5.57615e-11 -3.72552e-12 -30 7.07893e-11 -3.24725e-12 -30 7.26107e-11 -9.86858e-13 -30 6.19426e-11 4.17711e-13 -30
          4.44002e-11 1.5688e-12 -30 2.61753e-11 2.19646e-12 -30 1.34218e-11 3.60242e-12 -30 -3.68923e-13 5.53047e-12 -30
          1.03199e-11 -9.56774e-13 -30 3.24548e-11 -2.01347e-12 -30 5.58554e-11 -2.71055e-12 -30 7.08914e-11 -2.60058e-12 -30
          7.25619e-11 -1.18545e-12 -30 6.16754e-11 -1.63623e-13 -30 4.42442e-11 1.44041e-12 -30 2.59669e-11 2.3871e-12 -30
          1.34963e-11 4.00739e-12 -30 1.73708e-13 5.76493e-12 -30 1.04386e-11 -8.05772e-13 -30 3.26029e-11 -1.71929e-12 -30
          5.59025e-11 -2.6015e-12 -30 7.09692e-11 -2.72379e-12 -30 7.25553e-11 -1.03793e-12 -30 6.1455e-11 7.06082e-13 -30
          4.40618e-11 2.12302e-12 -30 2.58378e-11 3.02762e-12 -30 1.39268e-11 3.93745e-12 -30 7.2461e-13 6.03704e-12 -30
          1.05393e-11 -8.54533e-13 -30 3.27994e-11 -1.11314e-12 -30 5.57929e-11 -1.28604e-12 -30 7.08753e-11 -1.92713e-12 -30
          7.26049e-11 -9.25743e-13 -30 6.12134e-11 3.51282e-13 -30 4.39001e-11 1.81562e-12 -30 2.5899e-11 3.07442e-12 -30
          1.41489e-11 3.81543e-12 -30 1.52946e-12 6.40123e-12 -30 1.06555e-11 -4.05916e-13 -30 3.30496e-11 -5.58524e-13 -30
          5.57507e-11 -9.99625e-13 -30 7.08613e-11 -1.81711e-12 -30 7.26116e-11 -1.43844e-12 -30 6.12734e-11 1.40572e-13 -30
          4.39969e-11 1.50866e-12 -30 2.6033e-11 2.86781e-12 -30 1.44248e-11 3.78238e-12 -30 2.50843e-12 6.37043e-12 -30
          1.07296e-11 1.79397e-13 -30 3.3215e-11 1.34291e-13 -30 5.57627e-11 6.36429e-14 -30 7.08377e-11 -6.40836e-13 -30
          7.2552e-11 -3.13158e-13 -30 6.12296e-11 6.009e-13 -30 4.40106e-11 1.59399e-12 -30 2.61604e-11 2.44035e-12 -30
          1.43789e-11 3.03106e-12 -30 3.29259e-12 6.57634e-12 -30 1.07302e-11 -8.68799e-13 -30 3.33743e-11 -5.92937e-13 -30
          5.57044e-11 -5.286e-13 -30 7.07678e-11 -7.87723e-13 -30 7.24503e-11 -1.00834e-13 -30 6.10997e-11 7.43797e-13 -30
          4.38704e-11 1.03996e-12 -30 2.63436e-11 1.53274e-12 -30 1.45352e-11 1.55298e-12 -30 4.01224e-12 3.19323e-12 -30
          1.33958e-11 -3.7087e-13 -30 3.92063e-11 -4.54548e-13 -30 5.86368e-11 1.1336e-13 -30 6.95882e-11 5.26978e-13 -30
          6.89538e-11 7.88651e-13 -30 5.83973e-11 8.67502e-13 -30 4.11357e-11 8.14303e-13 -30 2.32231e-11 8.50096e-13 -30
          7.34081e-12 6.01158e-13 -30 -8.89633e-13 1.5694e-12 -30 1.32399e-11 -1.01112e-12 -30 3.90537e-11 -1.26978e-12 -30
          5.87307e-11 -2.08836e-13 -30 6.97189e-11 1.54421e-12 -30 6.90882e-11 1.7324e-12 -30 5.86082e-11 2.03655e-12 -30
          4.13516e-11 1.85139e-12 -30 2.33641e-11 1.49759e-12 -30 7.3557e-12 1.81677e-12 -30 -8.01124e-13 4.88843e-12 -30
          1.30213e-11 -1.29283e-12 -30 3.88076e-11 -6.70449e-13 -30 5.88556e-11 4.14859e-13 -30 6.98885e-11 1.99794e-12 -30
          6.93831e-11 2.31066e-12 -30 5.89639e-11 2.119e-12 -30 4.1438e-11 1.99169e-12 -30 2.38654e-11 1.60099e-12 -30
          7.42932e-12 1.41232e-12 -30 -6.07151e-13 5.00708e-12 -30 1.28318e-11 3.40499e-13 -30 3.84788e-11 3.53715e-13 -30
          5.88647e-11 1.09932e-12 -30 6.99857e-11 2.74428e-12 -30 6.96896e-11 3.16181e-12 -30 5.90603e-11 2.20792e-12 -30
          4.15112e-11 1.10425e-12 -30 2.39196e-11 1.09664e-13 -30 7.65928e-12 4.67343e-13 -30 -3.20119e-13 4.20202e-12 -30
          1.26505e-11 1.31255e-12 -30 3.80962e-11 8.427e-13 -30 5.89457e-11 1.30152e-12 -30 7.01263e-11 2.84799e-12 -30
          6.99815e-11 2.52937e-12 -30 5.92414e-11 1.07227e-12 -30 4.14455e-11 2.73379e-13 -30 2.38886e-11 -4.87312e-13 -30
          7.80859e-12 -2.82174e-14 -30 -3.77194e-13 3.05186e-12 -30 1.25066e-11 1.28616e-12 -30 3.76847e-11 1.25068e-12 -30
          5.89879e-11 1.1023e-12 -30 7.03902e-11 2.03635e-12 -30 7.0391e-11 2.64524e-12 -30 5.95144e-11 1.61586e-12 -30
          4.15567e-11 4.77774e-13 -30 2.38811e-11 -8.72027e-13 -30 7.85532e-12 -6.15919e-13 -30 -5.34772e-13 3.12455e-12 -30
          1.24662e-11 1.66755e-12 -30 3.73613e-11 1.89492e-12 -30 5.90243e-11 1.50057e-12 -30 7.07008e-11 2.12829e-12 -30
          7.0585e-11 2.69667e-12 -30 5.96095e-11 1.2634e-12 -30 4.17842e-11 1.75803e-13 -30 2.34948e-11 -9.78438e-13 -30
          8.06749e-12 -9.59962e-13 -30 -3.97874e-13 2.44006e-12 -30 1.24036e-11 1.56124e-12 -30 3.71086e-11 1.53376e-12 -30
          5.89275e-11 9.97106e-13 -30 7.08761e-11 1.29164e-12 -30 7.07421e-11 1.82481e-12 -30 5.95992e-11 1.24617e-12 -30
          4.18516e-11 2.88074e-13 -30 2.33621e-11 -8.9134e-13 -30 8.1316e-12 -6.80361e-13 -30 -6.0591e-13 2.86205e-12 -30
          1.22962e-11 2.10226e-12 -30 3.69353e-11 1.61263e-12 -30 5.88332e-11 8.28757e-13 -30 7.1006e-11 7.44963e-13 -30
          7.07343e-11 1.8433e-12 -30 5.9428e-11 1.31159e-12 -30 4.1814e-11 1.01808e-13 -30 2.32128e-11 -7.50097e-13 -30
          8.03978e-12 -4.64548e-13 -30 -4.40474e-13 3.02112e-12 -30 1.22445e-11 2.49267e-13 -30 3.68091e-11 -3.47112e-13 -30
          5.88158e-11 -5.31512e-13 -30 7.1226e-11 1.49905e-13 -30 7.08886e-11 8.24245e-13 -30 5.93275e-11 7.97804e-13 -30
          4.17151e-11 4.26276e-13 -30 2.31205e-11 8.08248e-13 -30 8.07949e-12 7.17738e-13 -30 -7.85822e-14 2.02748e-12 -30
          1.52636e-11 -7.11008e-13 -30 4.20559e-11 -8.97238e-13 -30 6.11832e-11 -9.60654e-13 -30 6.87371e-11 -7.3528e-13 -30
          6.43741e-11 -3.13461e-13 -30 4.97719e-11 3.15218e-13 -30 3.11744e-11 1.09847e-12 -30 1.20971e-11 1.91903e-12 -30
          7.1427e-13 1.80702e-12 -30 -7.10796e-12 2.6215e-12 -30 1.52836e-11 -2.80321e-12 -30 4.23388e-11 -2.72e-12 -30
          6.13371e-11 -1.50109e-12 -30 6.86473e-11 -8.55788e-13 -30 6.42206e-11 -5.47872e-13 -30 4.98033e-11 1.40484e-12 -30
          3.12525e-11 3.19671e-12 -30 1.22204e-11 4.92105e-12 -30 6.34448e-13 4.84193e-12 -30 -6.84492e-12 6.39207e-12 -30
          1.53243e-11 -3.52547e-12 -30 4.27925e-11 -3.10967e-12 -30 6.15228e-11 -2.01665e-12 -30 6.84881e-11 -2.07631e-12 -30
          6.39361e-11 -1.43929e-12 -30 5.00399e-11 1.17432e-12 -30 3.13994e-11 3.24121e-12 -30 1.20458e-11 5.74833e-12 -30
          6.70016e-14 5.50137e-12 -30 -6.53473e-12 7.35664e-12 -30 1.5392e-11 -2.27371e-12 -30 4.3257e-11 -2.68356e-12 -30
          6.17643e-11 -1.92996e-12 -30 6.84269e-11 -2.02413e-12 -30 6.38029e-11 -1.73794e-12 -30 5.0202e-11 2.33541e-13 -30
          3.15015e-11 1.82231e-12 -30 1.20148e-11 3.6103e-12 -30 -3.47416e-13 4.84156e-12 -30 -6.22536e-12 7.27711e-12 -30
          1.54275e-11 -1.49442e-12 -30 4.35155e-11 -2.84818e-12 -30 6.19562e-11 -2.13347e-12 -30 6.83528e-11 -2.05997e-12 -30
          6.35002e-11 -2.58286e-12 -30 5.019e-11 -1.51555e-12 -30 3.1578e-11 5.50578e-13 -30 1.21079e-11 2.8872e-12 -30
          -7.65969e-13 3.50694e-12 -30 -5.49165e-12 5.47286e-12 -30 1.54153e-11 -8.69706e-13 -30 4.37078e-11 -2.42037e-12 -30
          6.22284e-11 -2.53477e-12 -30 6.81431e-11 -2.49031e-12 -30 6.30845e-11 -2.55893e-12 -30 5.01329e-11 -1.34581e-12 -30
          3.16384e-11 -2.08874e-14 -30 1.21653e-11 1.67541e-12 -30 -1.05093e-12 3.18957e-12 -30 -4.99741e-12 6.07447e-12 -30
          1.53241e-11 -2.2051e-13 -30 4.38112e-11 -1.80965e-12 -30 6.22061e-11 -1.77458e-12 -30 6.81258e-11 -1.98366e-12 -30
          6.30709e-11 -2.25381e-12 -30 5.00668e-11 -1.54578e-12 -30 3.1408e-11 -7.22812e-13 -30 1.25409e-11 1.1739e-12 -30
          -8.94596e-13 2.08463e-12 -30 -4.52137e-12 4.02436e-12 -30 1.52102e-11 4.31767e-13 -30 4.37942e-11 -1.44432e-12 -30
          6.23376e-11 -1.63238e-12 -30 6.81415e-11 -1.79328e-12 -30 6.29807e-11 -2.33853e-12 -30 5.00527e-11 -2.06264e-12 -30
          3.10664e-11 -1.05222e-12 -30 1.24619e-11 2.73866e-13 -30 -8.72676e-13 9.68093e-13 -30 -3.48119e-12 4.34125e-12 -30
          1.50894e-11 1.10618e-12 -30 4.36392e-11 -5.98464e-13 -30 6.23678e-11 -9.17981e-13 -30 6.8256e-11 -1.26181e-12 -30
          6.30494e-11 -1.58323e-12 -30 4.99303e-11 -1.44951e-12 -30 3.08522e-11 -1.39166e-12 -30 1.24251e-11 -2.8026e-13 -30
          -9.24374e-13 1.90578e-13 -30 -2.58204e-12 3.32327e-12 -30 1.49825e-11 -1.24456e-13 -30 4.34683e-11 -1.02727e-12 -30
          6.24079e-11 -1.09187e-12 -30 6.82023e-11 -3.11635e-13 -30 6.30324e-11 -4.20272e-13 -30 4.99642e-11 -5.34813e-14 -30
          3.06553e-11 2.79088e-13 -30 1.24817e-11 1.12639e-12 -30 -1.04101e-12 1.22138e-12 -30 -2.38683e-12 2.76362e-12 -30
          1.38644e-11 -1.34731e-13 -30 3.77012e-11 -1.76072e-13 -30 5.51622e-11 -3.64427e-13 -30 6.14297e-11 6.10326e-13 -30
          5.47833e-11 9.53683e-13 -30 3.74969e-11 7.17905e-13 -30 1.75362e-11 1.15482e-12 -30 2.1424e-12 1.27216e-12 -30
          -6.34696e-12 1.29775e-12 -30 -1.00188e-11 2.89813e-12 -30 1.3919e-11 -1.58528e-12 -30 3.75383e-11 -5.8077e-13 -30
          5.50166e-11 2.91874e-13 -30 6.15439e-11 1.72175e-12 -30 5.50985e-11 3.1084e-12 -30 3.75714e-11 3.43313e-12 -30
          1.76587e-11 3.87401e-12 -30 2.15729e-12 3.82306e-12 -30 -6.14016e-12 3.19818e-12 -30 -9.55228e-12 5.45973e-12 -30
          1.40242e-11 -1.35695e-12 -30 3.75379e-11 6.41566e-13 -30 5.48164e-11 1.60108e-12 -30 6.16349e-11 2.13913e-12 -30
          5.54054e-11 3.73218e-12 -30 3.76433e-11 3.99819e-12 -30 1.7815e-11 4.8204e-12 -30 2.41123e-12 3.87626e-12 -30
          -5.69845e-12 3.38791e-12 -30 -9.27435e-12 5.88375e-12 -30 1.41733e-11 -6.11721e-13 -30 3.75581e-11 1.64409e-12 -30
          5.46014e-11 2.09236e-12 -30 6.16812e-11 2.07871e-12 -30 5.56362e-11 2.9207e-12 -30 3.79246e-11 3.14217e-12 -30
          1.8399e-11 3.99719e-12 -30 2.6569e-12 4.20827e-12 -30 -5.1583e-12 3.23793e-12 -30 -9.33804e-12 4.54692e-12 -30
          1.43605e-11 -4.19988e-13 -30 3.75743e-11 1.73346e-12 -30 5.44144e-11 2.72991e-12 -30 6.15522e-11 3.0684e-12 -30
          5.58471e-11 2.76381e-12 -30 3.82166e-11 2.79037e-12 -30 1.87919e-11 3.54491e-12 -30 2.74541e-12 2.78983e-12 -30
          -4.9788e-12 1.64567e-12 -30 -9.21893e-12 3.49537e-12 -30 1.4443e-11 1.66134e-13 -30 3.77149e-11 1.85823e-12 -30
          5.43449e-11 2.59687e-12 -30 6.14703e-11 2.42415e-12 -30 5.59819e-11 2.39301e-12 -30 3.86235e-11 1.91754e-12 -30
          1.91104e-11 2.22127e-12 -30 2.84302e-12 1.92557e-12 -30 -4.79268e-12 1.76724e-12 -30 -8.87151e-12 3.25573e-12 -30
          1.43694e-11 1.07547e-12 -30 3.79899e-11 2.3236e-12 -30 5.43218e-11 3.39618e-12 -30 6.13412e-11 2.29327e-12 -30
          5.59091e-11 1.72921e-12 -30 3.89503e-11 1.93875e-12 -30 1.95703e-11 2.38976e-12 -30 2.9795e-12 1.37445e-12 -30
          -4.997e-12 1.21213e-13 -30 -9.12711e-12 2.48245e-12 -30 1.43617e-11 7.25282e-13 -30 3.82215e-11 2.25513e-12 -30
          5.43582e-11 2.45714e-12 -30 6.11038e-11 1.8046e-12 -30 5.57247e-11 8.17065e-13 -30 3.92952e-11 6.53466e-13 -30
          2.04198e-11 1.15686e-12 -30 3.36497e-12 7.93344e-13 -30 -5.12852e-12 3.11695e-13 -30 -9.08906e-12 2.6548e-12 -30
          1.44211e-11 1.11754e-12 -30 3.84502e-11 1.42779e-12 -30 5.43979e-11 1.97687e-12 -30 6.08681e-11 9.51573e-13 -30
          5.55245e-11 -4.35102e-14 -30 3.96294e-11 6.57268e-13 -30 2.09897e-11 7.96107e-13 -30 3.88361e-12 4.44038e-13 -30
          -5.198e-12 -6.02175e-13 -30 -8.83263e-12 2.06042e-12 -30 1.44422e-11 -3.51978e-13 -30 3.86211e-11 2.44267e-13 -30
          5.44665e-11 1.87453e-13 -30 6.06315e-11 2.85736e-13 -30 5.54137e-11 9.1528e-13 -30 3.98147e-11 7.57659e-13 -30
          2.14066e-11 1.29122e-12 -30 3.96137e-12 1.74611e-12 -30 -5.42879e-12 1.4249e-12 -30 -8.21721e-12 2.36539e-12 -30
          1.003e-11 8.47896e-13 -30 3.15966e-11 -9.07664e-13 -30 4.59747e-11 -8.70096e-13 -30 4.84753e-11 -3.45762e-13 -30
          4.00695e-11 5.68091e-13 -30 2.67552e-11 2.57591e-13 -30 1.01338e-11 3.47734e-13 -30 -3.45679e-12 2.46687e-13 -30
          -1.24606e-11 7.67338e-14 -30 -1.22323e-11 2.9305e-12 -30 9.81202e-12 -7.85546e-13 -30 3.14701e-11 -2.64053e-12 -30
          4.62692e-11 -1.98552e-12 -30 4.86829e-11 -7.03059e-13 -30 3.99553e-11 7.98931e-13 -30 2.65426e-11 1.35606e-12 -30
          9.97332e-12 9.07519e-13 -30 -3.67516e-12 1.9472e-12 -30 -1.27212e-11 2.45633e-12 -30 -1.16508e-11 5.81941e-12 -30
          9.58061e-12 -1.02554e-13 -30 3.12327e-11 -1.93921e-12 -30 4.66182e-11 -2.44451e-12 -30 4.89434e-11 -1.69722e-12 -30
          3.99007e-11 -4.9014e-13 -30 2.60107e-11 1.79423e-13 -30 9.59033e-12 -6.61989e-13 -30 -4.13838e-12 -5.94167e-13 -30
          -1.3081e-11 9.59574e-13 -30 -1.06177e-11 6.44669e-12 -30 9.53553e-12 9.63266e-14 -30 3.10466e-11 -1.20511e-12 -30
          4.67001e-11 -3.07995e-12 -30 4.92412e-11 -3.27743e-12 -30 3.99735e-11 -2.68945e-12 -30 2.55309e-11 -3.02901e-12 -30
          8.94348e-12 -2.57394e-12 -30 -4.61815e-12 -1.57118e-12 -30 -1.31356e-11 4.49052e-13 -30 -1.0262e-11 4.04425e-12 -30
          9.70117e-12 -3.42618e-14 -30 3.08001e-11 -9.67495e-13 -30 4.67423e-11 -2.95781e-12 -30 4.96093e-11 -3.04827e-12 -30
          3.99586e-11 -3.07598e-12 -30 2.4937e-11 -3.86966e-12 -30 8.62998e-12 -4.11187e-12 -30 -4.7687e-12 -3.4307e-12 -30
          -1.31654e-11 -1.19214e-12 -30 -9.90632e-12 2.53148e-12 -30 9.80623e-12 4.17826e-13 -30 3.06276e-11 -8.00178e-13 -30
          4.67597e-11 -2.40019e-12 -30 4.98443e-11 -2.62082e-12 -30 3.98784e-11 -3.10133e-12 -30 2.43414e-11 -4.20073e-12 -30
          8.30986e-12 -4.10652e-12 -30 -4.91924e-12 -3.59592e-12 -30 -1.28908e-11 -2.19437e-12 -30 -9.38023e-12 1.8977e-12 -30
          9.9059e-12 7.23497e-13 -30 3.0542e-11 1.4835e-13 -30 4.65653e-11 -1.56541e-12 -30 4.97872e-11 -3.25957e-12 -30
          3.98362e-11 -3.85411e-12 -30 2.40006e-11 -4.37151e-12 -30 7.83009e-12 -3.33848e-12 -30 -5.31546e-12 -3.33673e-12 -30
          -1.2636e-11 -3.47774e-12 -30 -8.70194e-12 3.13064e-13 -30 1.00831e-11 7.93711e-13 -30 3.04456e-11 1.2469e-12 -30
          4.62617e-11 -3.63417e-13 -30 4.97599e-11 -1.43662e-12 -30 3.98469e-11 -2.51001e-12 -30 2.39328e-11 -3.40846e-12 -30
          7.47854e-12 -3.00049e-12 -30 -5.88953e-12 -2.34151e-12 -30 -1.25119e-11 -1.73535e-12 -30 -8.22383e-12 -7.51489e-14 -30
          1.0255e-11 9.67295e-13 -30 3.02914e-11 6.22126e-13 -30 4.61658e-11 -2.36573e-13 -30 4.95977e-11 -1.26316e-12 -30
          3.99082e-11 -2.50458e-12 -30 2.36656e-11 -1.94509e-12 -30 6.97975e-12 -1.76929e-12 -30 -6.04669e-12 -1.81574e-12 -30
          -1.26567e-11 -2.19458e-12 -30 -7.79039e-12 -3.30011e-13 -30 1.03139e-11 -6.68161e-13 -30 3.0121e-11 -1.18023e-12 -30
          4.61931e-11 -1.26441e-12 -30 4.94828e-11 -2.92264e-13 -30 3.99396e-11 -4.16949e-14 -30 2.34216e-11 -5.92831e-13 -30
          6.61993e-12 7.3333e-14 -30 -6.18897e-12 7.46812e-13 -30 -1.25723e-11 3.18088e-13 -30 -7.22377e-12 2.45543e-12 -30
          6.53638e-12 1.14563e-12 -30 1.65535e-11 2.49826e-13 -30 1.91972e-11 8.83136e-13 -30 1.85553e-11 1.06389e-12 -30
          1.50646e-11 9.9266e-13 -30 7.39748e-12 1.12044e-12 -30 -6.25349e-13 2.67413e-13 -30 -8.75323e-12 -1.96215e-13 -30
          -1.01545e-11 -7.54261e-13 -30 -1.52664e-11 6.20905e-13 -30 6.49585e-12 2.6673e-13 -30 1.66805e-11 1.05197e-14 -30
          1.94545e-11 1.45282e-12 -30 1.86298e-11 2.47298e-12 -30 1.52243e-11 2.09058e-12 -30 7.85656e-12 2.28077e-12 -30
          -3.23428e-13 2.05137e-12 -30 -8.52823e-12 2.70072e-12 -30 -1.00502e-11 9.95196e-13 -30 -1.41092e-11 8.60782e-13 -30
          6.4913e-12 1.6951e-12 -30 1.6824e-11 2.6665e-13 -30 1.97076e-11 7.89318e-13 -30 1.87117e-11 2.56929e-12 -30
          1.55907e-11 1.81629e-12 -30 8.62832e-12 1.41706e-12 -30 3.226e-13 9.49968e-13 -30 -7.78377e-12 1.17057e-12 -30
          -9.72103e-12 -5.28905e-13 -30 -1.24681e-11 1.67387e-12 -30 6.56926e-12 1.35259e-12 -30 1.67926e-11 1.19281e-12 -30
          1.99078e-11 9.4236e-14 -30 1.88523e-11 1.24501e-12 -30 1.57735e-11 7.87757e-13 -30 9.34135e-12 -1.87499e-13 -30
          1.15557e-12 -6.781e-13 -30 -6.75972e-12 -1.02228e-12 -30 -9.08906e-12 -1.76873e-12 -30 -1.06003e-11 -5.40318e-13 -30
          6.54052e-12 2.4386e-12 -30 1.67264e-11 1.0308e-12 -30 1.99723e-11 6.2979e-13 -30 1.90061e-11 2.87487e-13 -30
          1.59886e-11 -6.9098e-13 -30 9.80623e-12 -1.08055e-12 -30 1.56585e-12 -3.0518e-12 -30 -5.98961e-12 -3.24142e-12 -30
          -8.53319e-12 -3.04787e-12 -30 -8.97491e-12 -1.10239e-12 -30 6.54796e-12 2.15505e-12 -30 1.65746e-11 8.97952e-13 -30
          2.00517e-11 -4.00784e-13 -30 1.90491e-11 -1.99237e-13 -30 1.62433e-11 -9.70677e-13 -30 1.04556e-11 -2.01473e-12 -30
          2.15398e-12 -4.17036e-12 -30 -5.67942e-12 -5.28609e-12 -30 -8.00876e-12 -3.78836e-12 -30 -7.73579e-12 -1.09811e-13 -30
          6.55582e-12 2.15177e-12 -30 1.63302e-11 1.03684e-12 -30 2.01162e-11 -2.6815e-13 -30 1.93155e-11 -1.54329e-12 -30
          1.64187e-11 -2.18059e-12 -30 1.07591e-11 -3.49346e-12 -30 2.50222e-12 -5.71702e-12 -30 -5.02843e-12 -6.78413e-12 -30
          -7.55878e-12 -6.11338e-12 -30 -6.42554e-12 -1.07864e-12 -30 6.47682e-12 3.94305e-12 -30 1.62185e-11 1.84965e-12 -30
          2.02295e-11 2.74893e-13 -30 1.95281e-11 -1.09358e-12 -30 1.69158e-11 -2.43008e-12 -30 1.08584e-11 -3.16327e-12 -30
          2.85543e-12 -6.05107e-12 -30 -4.13425e-12 -7.41561e-12 -30 -6.93343e-12 -6.72349e-12 -30 -4.63966e-12 -1.283e-12 -30
          6.35461e-12 3.55172e-12 -30 1.60899e-11 1.25864e-12 -30 2.04065e-11 -1.86347e-13 -30 1.99475e-11 -1.668e-12 -30
          1.7298e-11 -3.05227e-12 -30 1.12794e-11 -3.89209e-12 -30 3.11351e-12 -7.10336e-12 -30 -3.40054e-12 -8.5066e-12 -30
          -6.46111e-12 -7.43696e-12 -30 -2.79504e-12 -1.75003e-12 -30 6.24232e-12 1.84928e-12 -30 1.59762e-11 -5.78009e-13 -30
          2.06315e-11 -9.63083e-13 -30 2.04471e-11 -3.39372e-13 -30 1.74998e-11 -5.21213e-13 -30 1.14788e-11 -1.4476e-12 -30
          3.48078e-12 -1.78324e-12 -30 -2.8728e-12 -2.48466e-12 -30 -6.08888e-12 -2.16892e-12 -30 -1.61135e-12 8.65417e-13 -30
        </DataArray>
      </CellData>
      <Points>
        <DataArray type="Float32" Name="Coordinates" NumberOfComponents="3" format="ascii">
          0 0 0 1 0 0 0 0.1 0 1 0.1 0
          0 0 1 1 0 1 0 0.1 1 1 0.1 1
          2 0 0 2 0.1 0 2 0 1 2 0.1 1
          3 0 0 3 0.1 0 3 0 1 3 0.1 1
          4 0 0 4 0.1 0 4 0 1 4 0.1 1
          5 0 0 5 0.1 0 5 0 1 5 0.1 1
          6 0 0 6 0.1 0 6 0 1 6 0.1 1
          7 0 0 7 0.1 0 7 0 1 7 0.1 1
          8 0 0 8 0.1 0 8 0 1 8 0.1 1
          9 0 0 9 0.1 0 9 0 1 9 0.1 1
          10 0 0 10 0.1 0 10 0 1 10 0.1 1
          0 0.2 0 1 0.2 0 0 0.2 1 1 0.2 1
          2 0.2 0 2 0.2 1 3 0.2 0 3 0.2 1
          4 0.2 0 4 0.2 1 5 0.2 0 5 0.2 1
          6 0.2 0 6 0.2 1 7 0.2 0 7 0.2 1
          8 0.2 0 8 0.2 1 9 0.2 0 9 0.2 1
          10 0.2 0 10 0.2 1 0 0.3 0 1 0.3 0
          0 0.3 1 1 0.3 1 2 0.3 0 2 0.3 1
          3 0.3 0 3 0.3 1 4 0.3 0 4 0.3 1
          5 0.3 0 5 0.3 1 6 0.3 0 6 0.3 1
          7 0.3 0 7 0.3 1 8 0.3 0 8 0.3 1
          9 0.3 0 9 0.3 1 10 0.3 0 10 0.3 1
          0 0.4 0 1 0.4 0 0 0.4 1 1 0.4 1
          2 0.4 0 2 0.4 1 3 0.4 0 3 0.4 1
          4 0.4 0 4 0.4 1 5 0.4 0 5 0.4 1
          6 0.4 0 6 0.4 1 7 0.4 0 7 0.4 1
          8 0.4 0 8 0.4 1 9 0.4 0 9 0.4 1
          10 0.4 0 10 0.4 1 0 0.5 0 1 0.5 0
          0 0.5 1 1 0.5 1 2 0.5 0 2 0.5 1
          3 0.5 0 3 0.5 1 4 0.5 0 4 0.5 1
          5 0.5 0 5 0.5 1 6 0.5 0 6 0.5 1
          7 0.5 0 7 0.5 1 8 0.5 0 8 0.5 1
          9 0.5 0 9 0.5 1 10 0.5 0 10 0.5 1
          0 0.6 0 1 0.6 0 0 0.6 1 1 0.6 1
          2 0.6 0 2 0.6 1 3 0.6 0 3 0.6 1
          4 0.6 0 4 0.6 1 5 0.6 0 5 0.6 1
          6 0.6 0 6 0.6 1 7 0.6 0 7 0.6 1
          8 0.6 0 8 0.6 1 9 0.6 0 9 0.6 1
          10 0.6 0 10 0.6 1 0 0.7 0 1 0.7 0
          0 0.7 1 1 0.7 1 2 0.7 0 2 0.7 1
          3 0.7 0 3 0.7 1 4 0.7 0 4 0.7 1
          5 0.7 0 5 0.7 1 6 0.7 0 6 0.7 1
          7 0.7 0 7 0.7 1 8 0.7 0 8 0.7 1
          9 0.7 0 9 0.7 1 10 0.7 0 10 0.7 1
          0 0.8 0 1 0.8 0 0 0.8 1 1 0.8 1
          2 0.8 0 2 0.8 1 3 0.8 0 3 0.8 1
          4 0.8 0 4 0.8 1 5 0.8 0 5 0.8 1
          6 0.8 0 6 0.8 1 7 0.8 0 7 0.8 1
          8 0.8 0 8 0.8 1 9 0.8 0 9 0.8 1
          10 0.8 0 10 0.8 1 0 0.9 0 1 0.9 0
          0 0.9 1 1 0.9 1 2 0.9 0 2 0.9 1
          3 0.9 0 3 0.9 1 4 0.9 0 4 0.9 1
          5 0.9 0 5 0.9 1 6 0.9 0 6 0.9 1
          7 0.9 0 7 0.9 1 8 0.9 0 8 0.9 1
          9 0.9 0 9 0.9 1 10 0.9 0 10 0.9 1
          0 1 0 1 1 0 0 1 1 1 1 1
          2 1 0 2 1 1 3 1 0 3 1 1
          4 1 0 4 1 1 5 1 0 5 1 1
          6 1 0 6 1 1 7 1 0 7 1 1
          8 1 0 8 1 1 9 1 0 9 1 1
          10 1 0 10 1 1 0 0 2 1 0 2
          0 0.1 2 1 0.1 2 2 0 2 2 0.1 2
          3 0 2 3 0.1 2 4 0 2 4 0.1 2
          5 0 2 5 0.1 2 6 0 2 6 0.1 2
          7 0 2 7 0.1 2 8 0 2 8 0.1 2
          9 0 2 9 0.1 2 10 0 2 10 0.1 2
          0 0.2 2 1 0.2 2 2 0.2 2 3 0.2 2
          4 0.2 2 5 0.2 2 6 0.2 2 7 0.2 2
          8 0.2 2 9 0.2 2 10 0.2 2 0 0.3 2
          1 0.3 2 2 0.3 2 3 0.3 2 4 0.3 2
          5 0.3 2 6 0.3 2 7 0.3 2 8 0.3 2
          9 0.3 2 10 0.3 2 0 0.4 2 1 0.4 2
          2 0.4 2 3 0.4 2 4 0.4 2 5 0.4 2
          6 0.4 2 7 0.4 2 8 0.4 2 9 0.4 2
          10 0.4 2 0 0.5 2 1 0.5 2 2 0.5 2
          3 0.5 2 4 0.5 2 5 0.5 2 6 0.5 2
          7 0.5 2 8 0.5 2 9 0.5 2 10 0.5 2
          0 0.6 2 1 0.6 2 2 0.6 2 3 0.6 2
          4 0.6 2 5 0.6 2 6 0.6 2 7 0.6 2
          8 0.6 2 9 0.6 2 10 0.6 2 0 0.7 2
          1 0.7 2 2 0.7 2 3 0.7 2 4 0.7 2
          5 0.7 2 6 0.7 2 7 0.7 2 8 0.7 2
          9 0.7 2 10 0.7 2 0 0.8 2 1 0.8 2
          2 0.8 2 3 0.8 2 4 0.8 2 5 0.8 2
          6 0.8 2 7 0.8 2 8 0.8 2 9 0.8 2
          10 0.8 2 0 0.9 2 1 0.9 2 2 0.9 2
          3 0.9 2 4 0.9 2 5 0.9 2 6 0.9 2
          7 0.9 2 8 0.9 2 9 0.9 2 10 0.9 2
          0 1 2 1 1 2 2 1 2 3 1 2
          4 1 2 5 1 2 6 1 2 7 1 2
          8 1 2 9 1 2 10 1 2 0 0 3
          1 0 3 0 0.1 3 1 0.1 3 2 0 3
          2 0.1 3 3 0 3 3 0.1 3 4 0 3
          4 0.1 3 5 0 3 5 0.1 3 6 0 3
          6 0.1 3 7 0 3 7 0.1 3 8 0 3
          8 0.1 3 9 0 3 9 0.1 3 10 0 3
          10 0.1 3 0 0.2 3 1 0.2 3 2 0.2 3
          3 0.2 3 4 0.2 3 5 0.2 3 6 0.2 3
          7 0.2 3 8 0.2 3 9 0.2 3 10 0.2 3
          0 0.3 3 1 0.3 3 2 0.3 3 3 0.3 3
          4 0.3 3 5 0.3 3 6 0.3 3 7 0.3 3
          8 0.3 3 9 0.3 3 10 0.3 3 0 0.4 3
          1 0.4 3 2 0.4 3 3 0.4 3 4 0.4 3
          5 0.4 3 6 0.4 3 7 0.4 3 8 0.4 3
          9 0.4 3 10 0.4 3 0 0.5 3 1 0.5 3
          2 0.5 3 3 0.5 3 4 0.5 3 5 0.5 3
          6 0.5 3 7 0.5 3 8 0.5 3 9 0.5 3
          10 0.5 3 0 0.6 3 1 0.6 3 2 0.6 3
          3 0.6 3 4 0.6 3 5 0.6 3 6 0.6 3
          7 0.6 3 8 0.6 3 9 0.6 3 10 0.6 3
          0 0.7 3 1 0.7 3 2 0.7 3 3 0.7 3
          4 0.7 3 5 0.7 3 6 0.7 3 7 0.7 3
          8 0.7 3 9 0.7 3 10 0.7 3 0 0.8 3
          1 0.8 3 2 0.8 3 3 0.8 3 4 0.8 3
          5 0.8 3 6 0.8 3 7 0.8 3 8 0.8 3
          9 0.8 3 10 0.8 3 0 0.9 3 1 0.9 3
          2 0.9 3 3 0.9 3 4 0.9 3 5 0.9 3
          6 0.9 3 7 0.9 3 8 0.9 3 9 0.9 3
          10 0.9 3 0 1 3 1 1 3 2 1 3
          3 1 3 4 1 3 5 1 3 6 1 3
          7 1 3 8 1 3 9 1 3 10 1 3
          0 0 4 1 0 4 0 0.1 4 1 0.1 4
          2 0 4 2 0.1 4 3 0 4 3 0.1 4
          4 0 4 4 0.1 4 5 0 4 5 0.1 4
          6 0 4 6 0.1 4 7 0 4 7 0.1 4
          8 0 4 8 0.1 4 9 0 4 9 0.1 4
          10 0 4 10 0.1 4 0 0.2 4 1 0.2 4
          2 0.2 4 3 0.2 4 4 0.2 4 5 0.2 4
          6 0.2 4 7 0.2 4 8 0.2 4 9 0.2 4
          10 0.2 4 0 0.3 4 1 0.3 4 2 0.3 4
          3 0.3 4 4 0.3 4 5 0.3 4 6 0.3 4
          7 0.3 4 8 0.3 4 9 0.3 4 10 0.3 4
          0 0.4 4 1 0.4 4 2 0.4 4 3 0.4 4
          4 0.4 4 5 0.4 4 6 0.4 4 7 0.4 4
          8 0.4 4 9 0.4 4 10 0.4 4 0 0.5 4
          1 0.5 4 2 0.5 4 3 0.5 4 4 0.5 4
          5 0.5 4 6 0.5 4 7 0.5 4 8 0.5 4
          9 0.5 4 10 0.5 4 0 0.6 4 1 0.6 4
          2 0.6 4 3 0.6 4 4 0.6 4 5 0.6 4
          6 0.6 4 7 0.6 4 8 0.6 4 9 0.6 4
          10 0.6 4 0 0.7 4 1 0.7 4 2 0.7 4
          3 0.7 4 4 0.7 4 5 0.7 4 6 0.7 4
          7 0.7 4 8 0.7 4 9 0.7 4 10 0.7 4
          0 0.8 4 1 0.8 4 2 0.8 4 3 0.8 4
          4 0.8 4 5 0.8 4 6 0.8 4 7 0.8 4
          8 0.8 4 9 0.8 4 10 0.8 4 0 0.9 4
          1 0.9 4 2 0.9 4 3 0.9 4 4 0.9 4
          5 0.9 4 6 0.9 4 7 0.9 4 8 0.9 4
          9 0.9 4 10 0.9 4 0 1 4 1 1 4
          2 1 4 3 1 4 4 1 4 5 1 4
          6 1 4 7 1 4 8 1 4 9 1 4
          10 1 4 0 0 5 1 0 5 0 0.1 5
          1 0.1 5 2 0 5 2 0.1 5 3 0 5
          3 0.1 5 4 0 5 4 0.1 5 5 0 5
          5 0.1 5 6 0 5 6 0.1 5 7 0 5
          7 0.1 5 8 0 5 8 0.1 5 9 0 5
          9 0.1 5 10 0 5 10 0.1 5 0 0.2 5
          1 0.2 5 2 0.2 5 3 0.2 5 4 0.2 5
          5 0.2 5 6 0.2 5 7 0.2 5 8 0.2 5
          9 0.2 5 10 0.2 5 0 0.3 5 1 0.3 5
          2 0.3 5 3 0.3 5 4 0.3 5 5 0.3 5
          6 0.3 5 7 0.3 5 8 0.3 5 9 0.3 5
          10 0.3 5 0 0.4 5 1 0.4 5 2 0.4 5
          3 0.4 5 4 0.4 5 5 0.4 5 6 0.4 5
          7 0.4 5 8 0.4 5 9 0.4 5 10 0.4 5
          0 0.5 5 1 0.5 5 2 0.5 5 3 0.5 5
          4 0.5 5 5 0.5 5 6 0.5 5 7 0.5 5
          8 0.5 5 9 0.5 5 10 0.5 5 0 0.6 5
          1 0.6 5 2 0.6 5 3 0.6 5 4 0.6 5
          5 0.6 5 6 0.6 5 7 0.6 5 8 0.6 5
          9 0.6 5 10 0.6 5 0 0.7 5 1 0.7 5
          2 0.7 5 3 0.7 5 4 0.7 5 5 0.7 5
          6 0.7 5 7 0.7 5 8 0.7 5 9 0.7 5
          10 0.7 5 0 0.8 5 1 0.8 5 2 0.8 5
          3 0.8 5 4 0.8 5 5 0.8 5 6 0.8 5
          7 0.8 5 8 0.8 5 9 0.8 5 10 0.8 5
          0 0.9 5 1 0.9 5 2 0.9 5 3 0.9 5
          4 0.9 5 5 0.9 5 6 0.9 5 7 0.9 5
          8 0.9 5 9 0.9 5 10 0.9 5 0 1 5
          1 1 5 2 1 5 3 1 5 4 1 5
          5 1 5 6 1 5 7 1 5 8 1 5
          9 1 5 10 1 5 0 0 6 1 0 6
          0 0.1 6 1 0.1 6 2 0 6 2 0.1 6
          3 0 6 3 0.1 6 4 0 6 4 0.1 6
          5 0 6 5 0.1 6 6 0 6 6 0.1 6
          7 0 6 7 0.1 6 8 0 6 8 0.1 6
          9 0 6 9 0.1 6 10 0 6 10 0.1 6
          0 0.2 6 1 0.2 6 2 0.2 6 3 0.2 6
          4 0.2 6 5 0.2 6 6 0.2 6 7 0.2 6
          8 0.2 6 9 0.2 6 10 0.2 6 0 0.3 6
          1 0.3 6 2 0.3 6 3 0.3 6 4 0.3 6
          5 0.3 6 6 0.3 6 7 0.3 6 8 0.3 6
          9 0.3 6 10 0.3 6 0 0.4 6 1 0.4 6
          2 0.4 6 3 0.4 6 4 0.4 6 5 0.4 6
          6 0.4 6 7 0.4 6 8 0.4 6 9 0.4 6
          10 0.4 6 0 0.5 6 1 0.5 6 2 0.5 6
          3 0.5 6 4 0.5 6 5 0.5 6 6 0.5 6
          7 0.5 6 8 0.5 6 9 0.5 6 10 0.5 6
          0 0.6 6 1 0.6 6 2 0.6 6 3 0.6 6
          4 0.6 6 5 0.6 6 6 0.6 6 7 0.6 6
          8 0.6 6 9 0.6 6 10 0.6 6 0 0.7 6
          1 0.7 6 2 0.7 6 3 0.7 6 4 0.7 6
          5 0.7 6 6 0.7 6 7 0.7 6 8 0.7 6
          9 0.7 6 10 0.7 6 0 0.8 6 1 0.8 6
          2 0.8 6 3 0.8 6 4 0.8 6 5 0.8 6
          6 0.8 6 7 0.8 6 8 0.8 6 9 0.8 6
          10 0.8 6 0 0.9 6 1 0.9 6 2 0.9 6
          3 0.9 6 4 0.9 6 5 0.9 6 6 0.9 6
          7 0.9 6 8 0.9 6 9 0.9 6 10 0.9 6
          0 1 6 1 1 6 2 1 6 3 1 6
          4 1 6 5 1 6 6 1 6 7 1 6
          8 1 6 9 1 6 10 1 6 0 0 7
          1 0 7 0 0.1 7 1 0.1 7 2 0 7
          2 0.1 7 3 0 7 3 0.1 7 4 0 7
          4 0.1 7 5 0 7 5 0.1 7 6 0 7
          6 0.1 7 7 0 7 7 0.1 7 8 0 7
          8 0.1 7 9 0 7 9 0.1 7 10 0 7
          10 0.1 7 0 0.2 7 1 0.2 7 2 0.2 7
          3 0.2 7 4 0.2 7 5 0.2 7 6 0.2 7
          7 0.2 7 8 0.2 7 9 0.2 7 10 0.2 7
          0 0.3 7 1 0.3 7 2 0.3 7 3 0.3 7
          4 0.3 7 5 0.3 7 6 0.3 7 7 0.3 7
          8 0.3 7 9 0.3 7 10 0.3 7 0 0.4 7
          1 0.4 7 2 0.4 7 3 0.4 7 4 0.4 7
          5 0.4 7 6 0.4 7 7 0.4 7 8 0.4 7
          9 0.4 7 10 0.4 7 0 0.5 7 1 0.5 7
          2 0.5 7 3 0.5 7 4 0.5 7 5 0.5 7
          6 0.5 7 7 0.5 7 8 0.5 7 9 0.5 7
          10 0.5 7 0 0.6 7 1 0.6 7 2 0.6 7
          3 0.6 7 4 0.6 7 5 0.6 7 6 0.6 7
          7 0.6 7 8 0.6 7 9 0.6 7 10 0.6 7
          0 0.7 7 1 0.7 7 2 0.7 7 3 0.7 7
          4 0.7 7 5 0.7 7 6 0.7 7 7 0.7 7
          8 0.7 7 9 0.7 7 10 0.7 7 0 0.8 7
          1 0.8 7 2 0.8 7 3 0.8 7 4 0.8 7
          5 0.8 7 6 0.8 7 7 0.8 7 8 0.8 7
          9 0.8 7 10 0.8 7 0 0.9 7 1 0.9 7
          2 0.9 7 3 0.9 7 4 0.9 7 5 0.9 7
          6 0.9 7 7 0.9 7 8 0.9 7 9 0.9 7
          10 0.9 7 0 1 7 1 1 7 2 1 7
          3 1 7 4 1 7 5 1 7 6 1 7
          7 1 7 8 1 7 9 1 7 10 1 7
          0 0 8 1 0 8 0 0.1 8 1 0.1 8
          2 0 8 2 0.1 8 3 0 8 3 0.1 8
          4 0 8 4 0.1 8 5 0 8 5 0.1 8
          6 0 8 6 0.1 8 7 0 8 7 0.1 8
          8 0 8 8 0.1 8 9 0 8 9 0.1 8
          10 0 8 10 0.1 8 0 0.2 8 1 0.2 8
          2 0.2 8 3 0.2 8 4 0.2 8 5 0.2 8
          6 0.2 8 7 0.2 8 8 0.2 8 9 0.2 8
          10 0.2 8 0 0.3 8 1 0.3 8 2 0.3 8
          3 0.3 8 4 0.3 8 5 0.3 8 6 0.3 8
          7 0.3 8 8 0.3 8 9 0.3 8 10 0.3 8
          0 0.4 8 1 0.4 8 2 0.4 8 3 0.4 8
          4 0.4 8 5 0.4 8 6 0.4 8 7 0.4 8
          8 0.4 8 9 0.4 8 10 0.4 8 0 0.5 8
          1 0.5 8 2 0.5 8 3 0.5 8 4 0.5 8
          5 0.5 8 6 0.5 8 7 0.5 8 8 0.5 8
          9 0.5 8 10 0.5 8 0 0.6 8 1 0.6 8
          2 0.6 8 3 0.6 8 4 0.6 8 5 0.6 8
          6 0.6 8 7 0.6 8 8 0.6 8 9 0.6 8
          10 0.6 8 0 0.7 8 1 0.7 8 2 0.7 8
          3 0.7 8 4 0.7 8 5 0.7 8 6 0.7 8
          7 0.7 8 8 0.7 8 9 0.7 8 10 0.7 8
          0 0.8 8 1 0.8 8 2 0.8 8 3 0.8 8
          4 0.8 8 5 0.8 8 6 0.8 8 7 0.8 8
          8 0.8 8 9 0.8 8 10 0.8 8 0 0.9 8
          1 0.9 8 2 0.9 8 3 0.9 8 4 0.9 8
          5 0.9 8 6 0.9 8 7 0.9 8 8 0.9 8
          9 0.9 8 10 0.9 8 0 1 8 1 1 8
          2 1 8 3 1 8 4 1 8 5 1 8
          6 1 8 7 1 8 8 1 8 9 1 8
          10 1 8 0 0 9 1 0 9 0 0.1 9
          1 0.1 9 2 0 9 2 0.1 9 3 0 9
          3 0.1 9 4 0 9 4 0.1 9 5 0 9
          5 0.1 9 6 0 9 6 0.1 9 7 0 9
          7 0.1 9 8 0 9 8 0.1 9 9 0 9
          9 0.1 9 10 0 9 10 0.1 9 0 0.2 9
          1 0.2 9 2 0.2 9 3 0.2 9 4 0.2 9
          5 0.2 9 6 0.2 9 7 0.2 9 8 0.2 9
          9 0.2 9 10 0.2 9 0 0.3 9 1 0.3 9
          2 0.3 9 3 0.3 9 4 0.3 9 5 0.3 9
          6 0.3 9 7 0.3 9 8 0.3 9 9 0.3 9
          10 0.3 9 0 0.4 9 1 0.4 9 2 0.4 9
          3 0.4 9 4 0.4 9 5 0.4 9 6 0.4 9
          7 0.4 9 8 0.4 9 9 0.4 9 10 0.4 9
          0 0.5 9 1 0.5 9 2 0.5 9 3 0.5 9
          4 0.5 9 5 0.5 9 6 0.5 9 7 0.5 9
          8 0.5 9 9 0.5 9 10 0.5 9 0 0.6 9
          1 0.6 9 2 0.6 9 3 0.6 9 4 0.6 9
          5 0.6 9 6 0.6 9 7 0.6 9 8 0.6 9
          9 0.6 9 10 0.6 9 0 0.7 9 1 0.7 9
          2 0.7 9 3 0.7 9 4 0.7 9 5 0.7 9
          6 0.7 9 7 0.7 9 8 0.7 9 9 0.7 9
          10 0.7 9 0 0.8 9 1 0.8 9 2 0.8 9
          3 0.8 9 4 0.8 9 5 0.8 9 6 0.8 9
          7 0.8 9 8 0.8 9 9 0.8 9 10 0.8 9
          0 0.9 9 1 0.9 9 2 0.9 9 3 0.9 9
          4 0.9 9 5 0.9 9 6 0.9 9 7 0.9 9
          8 0.9 9 9 0.9 9 10 0.9 9 0 1 9
          1 1 9 2 1 9 3 1 9 4 1 9
          5 1 9 6 1 9 7 1 9 8 1 9
          9 1 9 10 1 9 0 0 10 1 0 10
          0 0.1 10 1 0.1 10 2 0 10 2 0.1 10
          3 0 10 3 0.1 10 4 0 10 4 0.1 10
          5 0 10 5 0.1 10 6 0 10 6 0.1 10
          7 0 10 7 0.1 10 8 0 10 8 0.1 10
          9 0 10 9 0.1 10 10 0 10 10 0.1 10
          0 0.2 10 1 0.2 10 2 0.2 10 3 0.2 10
          4 0.2 10 5 0.2 10 6 0.2 10 7 0.2 10
          8 0.2 10 9 0.2 10 10 0.2 10 0 0.3 10
          1 0.3 10 2 0.3 10 3 0.3 10 4 0.3 10
          5 0.3 10 6 0.3 10 7 0.3 10 8 0.3 10
          9 0.3 10 10 0.3 10 0 0.4 10 1 0.4 10
          2 0.4 10 3 0.4 10 4 0.4 10 5 0.4 10
          6 0.4 10 7 0.4 10 8 0.4 10 9 0.4 10
          10 0.4 10 0 0.5 10 1 0.5 10 2 0.5 10
          3 0.5 10 4 0.5 10 5 0.5 10 6 0.5 10
          7 0.5 10 8 0.5 10 9 0.5 10 10 0.5 10
          0 0.6 10 1 0.6 10 2 0.6 10 3 0.6 10
          4 0.6 10 5 0.6 10 6 0.6 10 7 0.6 10
          8 0.6 10 9 0.6 10 10 0.6 10 0 0.7 10
          1 0.7 10 2 0.7 10 3 0.7 10 4 0.7 10
          5 0.7 10 6 0.7 10 7 0.7 10 8 0.7 10
          9 0.7 10 10 0.7 10 0 0.8 10 1 0.8 10
          2 0.8 10 3 0.8 10 4 0.8 10 5 0.8 10
          6 0.8 10 7 0.8 10 8 0.8 10 9 0.8 10
          10 0.8 10 0 0.9 10 1 0.9 10 2 0.9 10
          3 0.9 10 4 0.9 10 5 0.9 10 6 0.9 10
          7 0.9 10 8 0.9 10 9 0.9 10 10 0.9 10
          0 1 10 1 1 10 2 1 10 3 1 10
          4 1 10 5 1 10 6 1 10 7 1 10
          8 1 10 9 1 10 10 1 10
        </DataArray>
      </Points>
      <Cells>
        <DataArray type="Int32" Name="connectivity" NumberOfComponents="1" format="ascii">
          0 1 3 2 4 5 7 6 1 8 9 3
          5 10 11 7 8 12 13 9 10 14 15 11
          12 16 17 13 14 18 19 15 16 20 21 17
          18 22 23 19 20 24 25 21 22 26 27 23
          24 28 29 25 26 30 31 27 28 32 33 29
          30 34 35 31 32 36 37 33 34 38 39 35
          36 40 41 37 38 42 43 39 2 3 45 44
          6 7 47 46 3 9 48 45 7 11 49 47
          9 13 50 48 11 15 51 49 13 17 52 50
          15 19 53 51 17 21 54 52 19 23 55 53
          21 25 56 54 23 27 57 55 25 29 58 56
          27 31 59 57 29 33 60 58 31 35 61 59
          33 37 62 60 35 39 63 61 37 41 64 62
          39 43 65 63 44 45 67 66 46 47 69 68
          45 48 70 67 47 49 71 69 48 50 72 70
          49 51 73 71 50 52 74 72 51 53 75 73
          52 54 76 74 53 55 77 75 54 56 78 76
          55 57 79 77 56 58 80 78 57 59 81 79
          58 60 82 80 59 61 83 81 60 62 84 82
          61 63 85 83 62 64 86 84 63 65 87 85
          66 67 89 88 68 69 91 90 67 70 92 89
          69 71 93 91 70 72 94 92 71 73 95 93
          72 74 96 94 73 75 97 95 74 76 98 96
          75 77 99 97 76 78 100 98 77 79 101 99
          78 80 102 100 79 81 103 101 80 82 104 102
          81 83 105 103 82 84 106 104 83 85 107 105
          84 86 108 106 85 87 109 107 88 89 111 110
          90 91 113 112 89 92 114 111 91 93 115 113
          92 94 116 114 93 95 117 115 94 96 118 116
          95 97 119 117 96 98 120 118 97 99 121 119
          98 100 122 120 99 101 123 121 100 102 124 122
          101 103 125 123 102 104 126 124 103 105 127 125
          104 106 128 126 105 107 129 127 106 108 130 128
          107 109 131 129 110 111 133 132 112 113 135 134
          111 114 136 133 113 115 137 135 114 116 138 136
          115 117 139 137 116 118 140 138 117 119 141 139
          118 120 142 140 119 121 143 141 120 122 144 142
          121 123 145 143 122 124 146 144 123 125 147 145
          124 126 148 146 125 127 149 147 126 128 150 148
          127 129 151 149 128 130 152 150 129 131 153 151
          132 133 155 154 134 135 157 156 133 136 158 155
          135 137 159 157 136 138 160 158 137 139 161 159
          138 140 162 160 139 141 163 161 140 142 164 162
          141 143 165 163 142 144 166 164 143 145 167 165
          144 146 168 166 145 147 169 167 146 148 170 168
          147 149 171 169 148 150 172 170 149 151 173 171
          150 152 174 172 151 153 175 173 154 155 177 176
          156 157 179 178 155 158 180 177 157 159 181 179
          158 160 182 180 159 161 183 181 160 162 184 182
          161 163 185 183 162 164 186 184 163 165 187 185
          164 166 188 186 165 167 189 187 166 168 190 188
          167 169 191 189 168 170 192 190 169 171 193 191
          170 172 194 192 171 173 195 193 172 174 196 194
          173 175 197 195 176 177 199 198 178 179 201 200
          177 180 202 199 179 181 203 201 180 182 204 202
          181 183 205 203 182 184 206 204 183 185 207 205
          184 186 208 206 185 187 209 207 186 188 210 208
          187 189 211 209 188 190 212 210 189 191 213 211
          190 192 214 212 191 193 215 213 192 194 216 214
          193 195 217 215 194 196 218 216 195 197 219 217
          198 199 221 220 200 201 223 222 199 202 224 221
          201 203 225 223 202 204 226 224 203 205 227 225
          204 206 228 226 205 207 229 227 206 208 230 228
          207 209 231 229 208 210 232 230 209 211 233 231
          210 212 234 232 211 213 235 233 212 214 236 234
          213 215 237 235 214 216 238 236 215 217 239 237
          216 218 240 238 217 219 241 239 4 5 7 6
          242 243 245 244 5 10 11 7 243 246 247 245
          10 14 15 11 246 248 249 247 14 18 19 15
          248 250 251 249 18 22 23 19 250 252 253 251
          22 26 27 23 252 254 255 253 26 30 31 27
          254 256 257 255 30 34 35 31 256 258 259 257
          34 38 39 35 258 260 261 259 38 42 43 39
          260 262 263 261 6 7 47 46 244 245 265 264
          7 11 49 47 245 247 266 265 11 15 51 49
          247 249 267 266 15 19 53 51 249 251 268 267
          19 23 55 53 251 253 269 268 23 27 57 55
          253 255 270 269 27 31 59 57 255 257 271 270
          31 35 61 59 257 259 272 271 35 39 63 61
          259 261 273 272 39 43 65 63 261 263 274 273
          46 47 69 68 264 265 276 275 47 49 71 69
          265 266 277 276 49 51 73 71 266 267 278 277
          51 53 75 73 267 268 279 278 53 55 77 75
          268 269 280 279 55 57 79 77 269 270 281 280
          57 59 81 79 270 271 282 281 59 61 83 81
          271 272 283 282 61 63 85 83 272 273 284 283
          63 65 87 85 273 274 285 284 68 69 91 90
          275 276 287 286 69 71 93 91 276 277 288 287
          71 73 95 93 277 278 289 288 73 75 97 95
          278 279 290 289 75 77 99 97 279 280 291 290
          77 79 101 99 280 281 292 291 79 81 103 101
          281 282 293 292 81 83 105 103 282 283 294 293
          83 85 107 105 283 284 295 294 85 87 109 107
          284 285 296 295 90 91 113 112 286 287 298 297
          91 93 115 113 287 288 299 298 93 95 117 115
          288 289 300 299 95 97 119 117 289 290 301 300
          97 99 121 119 290 291 302 301 99 101 123 121
          291 292 303 302 101 103 125 123 292 293 304 303
          103 105 127 125 293 294 305 304 105 107 129 127
          294 295 306 305 107 109 131 129 295 296 307 306
          112 113 135 134 297 298 309 308 113 115 137 135
          298 299 310 309 115 117 139 137 299 300 311 310
          117 119 141 139 300 301 312 311 119 121 143 141
          301 302 313 312 121 123 145 143 302 303 314 313
          123 125 147 145 303 304 315 314 125 127 149 147
          304 305 316 315 127 129 151 149 305 306 317 316
          129 131 153 151 306 307 318 317 134 135 157 156
          308 309 320 319 135 137 159 157 309 310 321 320
          137 139 161 159 310 311 322 321 139 141 163 161
          311 312 323 322 141 143 165 163 312 313 324 323
          143 145 167 165 313 314 325 324 145 147 169 167
          314 315 326 325 147 149 171 169 315 316 327 326
          149 151 173 171 316 317 328 327 151 153 175 173
          317 318 329 328 156 157 179 178 319 320 331 330
          157 159 181 179 320 321 332 331 159 161 183 181
          321 322 333 332 161 163 185 183 322 323 334 333
          163 165 187 185 323 324 335 334 165 167 189 187
          324 325 336 335 167 169 191 189 325 326 337 336
          169 171 193 191 326 327 338 337 171 173 195 193
          327 328 339 338 173 175 197 195 328 329 340 339
          178 179 201 200 330 331 342 341 179 181 203 201
          331 332 343 342 181 183 205 203 332 333 344 343
          183 185 207 205 333 334 345 344 185 187 209 207
          334 335 346 345 187 189 211 209 335 336 347 346
          189 191 213 211 336 337 348 347 191 193 215 213
          337 338 349 348 193 195 217 215 338 339 350 349
          195 197 219 217 339 340 351 350 200 201 223 222
          341 342 353 352 201 203 225 223 342 343 354 353
          203 205 227 225 343 344 355 354 205 207 229 227
          344 345 356 355 207 209 231 229 345 346 357 356
          209 211 233 231 346 347 358 357 211 213 235 233
          347 348 359 358 213 215 237 235 348 349 360 359
          215 217 239 237 349 350 361 360 217 219 241 239
          350 351 362 361 242 243 245 244 363 364 366 365
          243 246 247 245 364 367 368 366 246 248 249 247
          367 369 370 368 248 250 251 249 369 371 372 370
          250 252 253 251 371 373 374 372 252 254 255 253
          373 375 376 374 254 256 257 255 375 377 378 376
          256 258 259 257 377 379 380 378 258 260 261 259
          379 381 382 380 260 262 263 261 381 383 384 382
          244 245 265 264 365 366 386 385 245 247 266 265
          366 368 387 386 247 249 267 266 368 370 388 387
          249 251 268 267 370 372 389 388 251 253 269 268
          372 374 390 389 253 255 270 269 374 376 391 390
          255 257 271 270 376 378 392 391 257 259 272 271
          378 380 393 392 259 261 273 272 380 382 394 393
          261 263 274 273 382 384 395 394 264 265 276 275
          385 386 397 396 265 266 277 276 386 387 398 397
          266 267 278 277 387 388 399 398 267 268 279 278
          388 389 400 399 268 269 280 279 389 390 401 400
          269 270 281 280 390 391 402 401 270 271 282 281
          391 392 403 402 271 272 283 282 392 393 404 403
          272 273 284 283 393 394 405 404 273 274 285 284
          394 395 406 405 275 276 287 286 396 397 408 407
          276 277 288 287 397 398 409 408 277 278 289 288
          398 399 410 409 278 279 290 289 399 400 411 410
          279 280 291 290 400 401 412 411 280 281 292 291
          401 402 413 412 281 282 293 292 402 403 414 413
          282 283 294 293 403 404 415 414 283 284 295 294
          404 405 416 415 284 285 296 295 405 406 417 416
          286 287 298 297 407 408 419 418 287 288 299 298
          408 409 420 419 288 289 300 299 409 410 421 420
          289 290 301 300 410 411 422 421 290 291 302 301
          411 412 423 422 291 292 303 302 412 413 424 423
          292 293 304 303 413 414 425 424 293 294 305 304
          414 415 426 425 294 295 306 305 415 416 427 426
          295 296 307 306 416 417 428 427 297 298 309 308
          418 419 430 429 298 299 310 309 419 420 431 430
          299 300 311 310 420 421 432 431 300 301 312 311
          421 422 433 432 301 302 313 312 422 423 434 433
          302 303 314 313 423 424 435 434 303 304 315 314
          424 425 436 435 304 305 316 315 425 426 437 436
          305 306 317 316 426 427 438 437 306 307 318 317
          427 428 439 438 308 309 320 319 429 430 441 440
          309 310 321 320 430 431 442 441 310 311 322 321
          431 432 443 442 311 312 323 322 432 433 444 443
          312 313 324 323 433 434 445 444 313 314 325 324
          434 435 446 445 314 315 326 325 435 436 447 446
          315 316 327 326 436 437 448 447 316 317 328 327
          437 438 449 448 317 318 329 328 438 439 450 449
          319 320 331 330 440 441 452 451 320 321 332 331
          441 442 453 452 321 322 333 332 442 443 454 453
          322 323 334 333 443 444 455 454 323 324 335 334
          444 445 456 455 324 325 336 335 445 446 457 456
          325 326 337 336 446 447 458 457 326 327 338 337
          447 448 459 458 327 328 339 338 448 449 460 459
          328 329 340 339 449 450 461 460 330 331 342 341
          451 452 463 462 331 332 343 342 452 453 464 463
          332 333 344 343 453 454 465 464 333 334 345 344
          454 455 466 465 334 335 346 345 455 456 467 466
          335 336 347 346 456 457 468 467 336 337 348 347
          457 458 469 468 337 338 349 348 458 459 470 469
          338 339 350 349 459 460 471 470 339 340 351 350
          460 461 472 471 341 342 353 352 462 463 474 473
          342 343 354 353 463 464 475 474 343 344 355 354
          464 465 476 475 344 345 356 355 465 466 477 476
          345 346 357 356 466 467 478 477 346 347 358 357
          467 468 479 478 347 348 359 358 468 469 480 479
          348 349 360 359 469 470 481 480 349 350 361 360
          470 471 482 481 350 351 362 361 471 472 483 482
          363 364 366 365 484 485 487 486 364 367 368 366
          485 488 489 487 367 369 370 368 488 490 491 489
          369 371 372 370 490 492 493 491 371 373 374 372
          492 494 495 493 373 375 376 374 494 496 497 495
          375 377 378 376 496 498 499 497 377 379 380 378
          498 500 501 499 379 381 382 380 500 502 503 501
          381 383 384 382 502 504 505 503 365 366 386 385
          486 487 507 506 366 368 387 386 487 489 508 507
          368 370 388 387 489 491 509 508 370 372 389 388
          491 493 510 509 372 374 390 389 493 495 511 510
          374 376 391 390 495 497 512 511 376 378 392 391
          497 499 513 512 378 380 393 392 499 501 514 513
          380 382 394 393 501 503 515 514 382 384 395 394
          503 505 516 515 385 386 397 396 506 507 518 517
          386 387 398 397 507 508 519 518 387 388 399 398
          508 509 520 519 388 389 400 399 509 510 521 520
          389 390 401 400 510 511 522 521 390 391 402 401
          511 512 523 522 391 392 403 402 512 513 524 523
          392 393 404 403 513 514 525 524 393 394 405 404
          514 515 526 525 394 395 406 405 515 516 527 526
          396 397 408 407 517 518 529 528 397 398 409 408
          518 519 530 529 398 399 410 409 519 520 531 530
          399 400 411 410 520 521 532 531 400 401 412 411
          521 522 533 532 401 402 413 412 522 523 534 533
          402 403 414 413 523 524 535 534 403 404 415 414
          524 525 536 535 404 405 416 415 525 526 537 536
          405 406 417 416 526 527 538 537 407 408 419 418
          528 529 540 539 408 409 420 419 529 530 541 540
          409 410 421 420 530 531 542 541 410 411 422 421
          531 532 543 542 411 412 423 422 532 533 544 543
          412 413 424 423 533 534 545 544 413 414 425 424
          534 535 546 545 414 415 426 425 535 536 547 546
          415 416 427 426 536 537 548 547 416 417 428 427
          537 538 549 548 418 419 430 429 539 540 551 550
          419 420 431 430 540 541 552 551 420 421 432 431
          541 542 553 552 421 422 433 432 542 543 554 553
          422 423 434 433 543 544 555 554 423 424 435 434
          544 545 556 555 424 425 436 435 545 546 557 556
          425 426 437 436 546 547 558 557 426 427 438 437
          547 548 559 558 427 428 439 438 548 549 560 559
          429 430 441 440 550 551 562 561 430 431 442 441
          551 552 563 562 431 432 443 442 552 553 564 563
          432 433 444 443 553 554 565 564 433 434 445 444
          554 555 566 565 434 435 446 445 555 556 567 566
          435 436 447 446 556 557 568 567 436 437 448 447
          557 558 569 568 437 438 449 448 558 559 570 569
          438 439 450 449 559 560 571 570 440 441 452 451
          561 562 573 572 441 442 453 452 562 563 574 573
          442 443 454 453 563 564 575 574 443 444 455 454
          564 565 576 575 444 445 456 455 565 566 577 576
          445 446 457 456 566 567 578 577 446 447 458 457
          567 568 579 578 447 448 459 458 568 569 580 579
          448 449 460 459 569 570 581 580 449 450 461 460
          570 571 582 581 451 452 463 462 572 573 584 583
          452 453 464 463 573 574 585 584 453 454 465 464
          574 575 586 585 454 455 466 465 575 576 587 586
          455 456 467 466 576 577 588 587 456 457 468 467
          577 578 589 588 457 458 469 468 578 579 590 589
          458 459 470 469 579 580 591 590 459 460 471 470
          580 581 592 591 460 461 472 471 581 582 593 592
          462 463 474 473 583 584 595 594 463 464 475 474
          584 585 596 595 464 465 476 475 585 586 597 596
          465 466 477 476 586 587 598 597 466 467 478 477
          587 588 599 598 467 468 479 478 588 589 600 599
          468 469 480 479 589 590 601 600 469 470 481 480
          590 591 602 601 470 471 482 481 591 592 603 602
          471 472 483 482 592 593 604 603 484 485 487 486
          605 606 608 607 485 488 489 487 606 609 610 608
          488 490 491 489 609 611 612 610 490 492 493 491
          611 613 614 612 492 494 495 493 613 615 616 614
          494 496 497 495 615 617 618 616 496 498 499 497
          617 619 620 618 498 500 501 499 619 621 622 620
          500 502 503 501 621 623 624 622 502 504 505 503
          623 625 626 624 486 487 507 506 607 608 628 627
          487 489 508 507 608 610 629 628 489 491 509 508
          610 612 630 629 491 493 510 509 612 614 631 630
          493 495 511 510 614 616 632 631 495 497 512 511
          616 618 633 632 497 499 513 512 618 620 634 633
          499 501 514 513 620 622 635 634 501 503 515 514
          622 624 636 635 503 505 516 515 624 626 637 636
          506 507 518 517 627 628 639 638 507 508 519 518
          628 629 640 639 508 509 520 519 629 630 641 640
          509 510 521 520 630 631 642 641 510 511 522 521
          631 632 643 642 511 512 523 522 632 633 644 643
          512 513 524 523 633 634 645 644 513 514 525 524
          634 635 646 645 514 515 526 525 635 636 647 646
          515 516 527 526 636 637 648 647 517 518 529 528
          638 639 650 649 518 519 530 529 639 640 651 650
          519 520 531 530 640 641 652 651 520 521 532 531
          641 642 653 652 521 522 533 532 642 643 654 653
          522 523 534 533 643 644 655 654 523 524 535 534
          644 645 656 655 524 525 536 535 645 646 657 656
          525 526 537 536 646 647 658 657 526 527 538 537
          647 648 659 658 528 529 540 539 649 650 661 660
          529 530 541 540 650 651 662 661 530 531 542 541
          651 652 663 662 531 532 543 542 652 653 664 663
          532 533 544 543 653 654 665 664 533 534 545 544
          654 655 666 665 534 535 546 545 655 656 667 666
          535 536 547 546 656 657 668 667 536 537 548 547
          657 658 669 668 537 538 549 548 658 659 670 669
          539 540 551 550 660 661 672 671 540 541 552 551
          661 662 673 672 541 542 553 552 662 663 674 673
          542 543 554 553 663 664 675 674 543 544 555 554
          664 665 676 675 544 545 556 555 665 666 677 676
          545 546 557 556 666 667 678 677 546 547 558 557
          667 668 679 678 547 548 559 558 668 669 680 679
          548 549 560 559 669 670 681 680 550 551 562 561
          671 672 683 682 551 552 563 562 672 673 684 683
          552 553 564 563 673 674 685 684 553 554 565 564
          674 675 686 685 554 555 566 565 675 676 687 686
          555 556 567 566 676 677 688 687 556 557 568 567
          677 678 689 688 557 558 569 568 678 679 690 689
          558 559 570 569 679 680 691 690 559 560 571 570
          680 681 692 691 561 562 573 572 682 683 694 693
          562 563 574 573 683 684 695 694 563 564 575 574
          684 685 696 695 564 565 576 575 685 686 697 696
          565 566 577 576 686 687 698 697 566 567 578 577
          687 688 699 698 567 568 579 578 688 689 700 699
          568 569 580 579 689 690 701 700 569 570 581 580
          690 691 702 701 570 571 582 581 691 692 703 702
          572 573 584 583 693 694 705 704 573 574 585 584
          694 695 706 705 574 575 586 585 695 696 707 706
          575 576 587 586 696 697 708 707 576 577 588 587
          697 698 709 708 577 578 589 588 698 699 710 709
          578 579 590 589 699 700 711 710 579 580 591 590
          700 701 712 711 580 581 592 591 701 702 713 712
          581 582 593 592 702 703 714 713 583 584 595 594
          704 705 716 715 584 585 596 595 705 706 717 716
          585 586 597 596 706 707 718 717 586 587 598 597
          707 708 719 718 587 588 599 598 708 709 720 719
          588 589 600 599 709 710 721 720 589 590 601 600
          710 711 722 721 590 591 602 601 711 712 723 722
          591 592 603 602 712 713 724 723 592 593 604 603
          713 714 725 724 605 606 608 607 726 727 729 728
          606 609 610 608 727 730 731 729 609 611 612 610
          730 732 733 731 611 613 614 612 732 734 735 733
          613 615 616 614 734 736 737 735 615 617 618 616
          736 738 739 737 617 619 620 618 738 740 741 739
          619 621 622 620 740 742 743 741 621 623 624 622
          742 744 745 743 623 625 626 624 744 746 747 745
          607 608 628 627 728 729 749 748 608 610 629 628
          729 731 750 749 610 612 630 629 731 733 751 750
          612 614 631 630 733 735 752 751 614 616 632 631
          735 737 753 752 616 618 633 632 737 739 754 753
          618 620 634 633 739 741 755 754 620 622 635 634
          741 743 756 755 622 624 636 635 743 745 757 756
          624 626 637 636 745 747 758 757 627 628 639 638
          748 749 760 759 628 629 640 639 749 750 761 760
          629 630 641 640 750 751 762 761 630 631 642 641
          751 752 763 762 631 632 643 642 752 753 764 763
          632 633 644 643 753 754 765 764 633 634 645 644
          754 755 766 765 634 635 646 645 755 756 767 766
          635 636 647 646 756 757 768 767 636 637 648 647
          757 758 769 768 638 639 650 649 759 760 771 770
          639 640 651 650 760 761 772 771 640 641 652 651
          761 762 773 772 641 642 653 652 762 763 774 773
          642 643 654 653 763 764 775 774 643 644 655 654
          764 765 776 775 644 645 656 655 765 766 777 776
          645 646 657 656 766 767 778 777 646 647 658 657
          767 768 779 778 647 648 659 658 768 769 780 779
          649 650 661 660 770 771 782 781 650 651 662 661
          771 772 783 782 651 652 663 662 772 773 784 783
          652 653 664 663 773 774 785 784 653 654 665 664
          774 775 786 785 654 655 666 665 775 776 787 786
          655 656 667 666 776 777 788 787 656 657 668 667
          777 778 789 788 657 658 669 668 778 779 790 789
          658 659 670 669 779 780 791 790 660 661 672 671
          781 782 793 792 661 662 673 672 782 783 794 793
          662 663 674 673 783 784 795 794 663 664 675 674
          784 785 796 795 664 665 676 675 785 786 797 796
          665 666 677 676 786 787 798 797 666 667 678 677
          787 788 799 798 667 668 679 678 788 789 800 799
          668 669 680 679 789 790 801 800 669 670 681 680
          790 791 802 801 671 672 683 682 792 793 804 803
          672 673 684 683 793 794 805 804 673 674 685 684
          794 795 806 805 674 675 686 685 795 796 807 806
          675 676 687 686 796 797 808 807 676 677 688 687
          797 798 809 808 677 678 689 688 798 799 810 809
          678 679 690 689 799 800 811 810 679 680 691 690
          800 801 812 811 680 681 692 691 801 802 813 812
          682 683 694 693 803 804 815 814 683 684 695 694
          804 805 816 815 684 685 696 695 805 806 817 816
          685 686 697 696 806 807 818 817 686 687 698 697
          807 808 819 818 687 688 699 698 808 809 820 819
          688 689 700 699 809 810 821 820 689 690 701 700
          810 811 822 821 690 691 702 701 811 812 823 822
          691 692 703 702 812 813 824 823 693 694 705 704
          814 815 826 825 694 695 706 705 815 816 827 826
          695 696 707 706 816 817 828 827 696 697 708 707
          817 818 829 828 697 698 709 708 818 819 830 829
          698 699 710 709 819 820 831 830 699 700 711 710
          820 821 832 831 700 701 712 711 821 822 833 832
          701 702 713 712 822 823 834 833 702 703 714 713
          823 824 835 834 704 705 716 715 825 826 837 836
          705 706 717 716 826 827 838 837 706 707 718 717
          827 828 839 838 707 708 719 718 828 829 840 839
          708 709 720 719 829 830 841 840 709 710 721 720
          830 831 842 841 710 711 722 721 831 832 843 842
          711 712 723 722 832 833 844 843 712 713 724 723
          833 834 845 844 713 714 725 724 834 835 846 845
          726 727 729 728 847 848 850 849 727 730 731 729
          848 851 852 850 730 732 733 731 851 853 854 852
          732 734 735 733 853 855 856 854 734 736 737 735
          855 857 858 856 736 738 739 737 857 859 860 858
          738 740 741 739 859 861 862 860 740 742 743 741
          861 863 864 862 742 744 745 743 863 865 866 864
          744 746 747 745 865 867 868 866 728 729 749 748
          849 850 870 869 729 731 750 749 850 852 871 870
          731 733 751 750 852 854 872 871 733 735 752 751
          854 856 873 872 735 737 753 752 856 858 874 873
          737 739 754 753 858 860 875 874 739 741 755 754
          860 862 876 875 741 743 756 755 862 864 877 876
          743 745 757 756 864 866 878 877 745 747 758 757
          866 868 879 878 748 749 760 759 869 870 881 880
          749 750 761 760 870 871 882 881 750 751 762 761
          871 872 883 882 751 752 763 762 872 873 884 883
          752 753 764 763 873 874 885 884 753 754 765 764
          874 875 886 885 754 755 766 765 875 876 887 886
          755 756 767 766 876 877 888 887 756 757 768 767
          877 878 889 888 757 758 769 768 878 879 890 889
          759 760 771 770 880 881 892 891 760 761 772 771
          881 882 893 892 761 762 773 772 882 883 894 893
          762 763 774 773 883 884 895 894 763 764 775 774
          884 885 896 895 764 765 776 775 885 886 897 896
          765 766 777 776 886 887 898 897 766 767 778 777
          887 888 899 898 767 768 779 778 888 889 900 899
          768 769 780 779 889 890 901 900 770 771 782 781
          891 892 903 902 771 772 783 782 892 893 904 903
          772 773 784 783 893 894 905 904 773 774 785 784
          894 895 906 905 774 775 786 785 895 896 907 906
          775 776 787 786 896 897 908 907 776 777 788 787
          897 898 909 908 777 778 789 788 898 899 910 909
          778 779 790 789 899 900 911 910 779 780 791 790
          900 901 912 911 781 782 793 792 902 903 914 913
          782 783 794 793 903 904 915 914 783 784 795 794
          904 905 916 915 784 785 796 795 905 906 917 916
          785 786 797 796 906 907 918 917 786 787 798 797
          907 908 919 918 787 788 799 798 908 909 920 919
          788 789 800 799 909 910 921 920 789 790 801 800
          910 911 922 921 790 791 802 801 911 912 923 922
          792 793 804 803 913 914 925 924 793 794 805 804
          914 915 926 925 794 795 806 805 915 916 927 926
          795 796 807 806 916 917 928 927 796 797 808 807
          917 918 929 928 797 798 809 808 918 919 930 929
          798 799 810 809 919 920 931 930 799 800 811 810
          920 921 932 931 800 801 812 811 921 922 933 932
          801 802 813 812 922 923 934 933 803 804 815 814
          924 925 936 935 804 805 816 815 925 926 937 936
          805 806 817 816 926 927 938 937 806 807 818 817
          927 928 939 938 807 808 819 818 928 929 940 939
          808 809 820 819 929 930 941 940 809 810 821 820
          930 931 942 941 810 811 822 821 931 932 943 942
          811 812 823 822 932 933 944 943 812 813 824 823
          933 934 945 944 814 815 826 825 935 936 947 946
          815 816 827 826 936 937 948 947 816 817 828 827
          937 938 949 948 817 818 829 828 938 939 950 949
          818 819 830 829 939 940 951 950 819 820 831 830
          940 941 952 951 820 821 832 831 941 942 953 952
          821 822 833 832 942 943 954 953 822 823 834 833
          943 944 955 954 823 824 835 834 944 945 956 955
          825 826 837 836 946 947 958 957 826 827 838 837
          947 948 959 958 827 828 839 838 948 949 960 959
          828 829 840 839 949 950 961 960 829 830 841 840
          950 951 962 961 830 831 842 841 951 952 963 962
          831 832 843 842 952 953 964 963 832 833 844 843
          953 954 965 964 833 834 845 844 954 955 966 965
          834 835 846 845 955 956 967 966 847 848 850 849
          968 969 971 970 848 851 852 850 969 972 973 971
          851 853 854 852 972 974 975 973 853 855 856 854
          974 976 977 975 855 857 858 856 976 978 979 977
          857 859 860 858 978 980 981 979 859 861 862 860
          980 982 983 981 861 863 864 862 982 984 985 983
          863 865 866 864 984 986 987 985 865 867 868 866
          986 988 989 987 849 850 870 869 970 971 991 990
          850 852 871 870 971 973 992 991 852 854 872 871
          973 975 993 992 854 856 873 872 975 977 994 993
          856 858 874 873 977 979 995 994 858 860 875 874
          979 981 996 995 860 862 876 875 981 983 997 996
          862 864 877 876 983 985 998 997 864 866 878 877
          985 987 999 998 866 868 879 878 987 989 1000 999
          869 870 881 880 990 991 1002 1001 870 871 882 881
          991 992 1003 1002 871 872 883 882 992 993 1004 1003
          872 873 884 883 993 994 1005 1004 873 874 885 884
          994 995 1006 1005 874 875 886 885 995 996 1007 1006
          875 876 887 886 996 997 1008 1007 876 877 888 887
          997 998 1009 1008 877 878 889 888 998 999 1010 1009
          878 879 890 889 999 1000 1011 1010 880 881 892 891
          1001 1002 1013 1012 881 882 893 892 1002 1003 1014 1013
          882 883 894 893 1003 1004 1015 1014 883 884 895 894
          1004 1005 1016 1015 884 885 896 895 1005 1006 1017 1016
          885 886 897 896 1006 1007 1018 1017 886 887 898 897
          1007 1008 1019 1018 887 888 899 898 1008 1009 1020 1019
          888 889 900 899 1009 1010 1021 1020 889 890 901 900
          1010 1011 1022 1021 891 892 903 902 1012 1013 1024 1023
          892 893 904 903 1013 1014 1025 1024 893 894 905 904
          1014 1015 1026 1025 894 895 906 905 1015 1016 1027 1026
          895 896 907 906 1016 1017 1028 1027 896 897 908 907
          1017 1018 1029 1028 897 898 909 908 1018 1019 1030 1029
          898 899 910 909 1019 1020 1031 1030 899 900 911 910
          1020 1021 1032 1031 900 901 912 911 1021 1022 1033 1032
          902 903 914 913 1023 1024 1035 1034 903 904 915 914
          1024 1025 1036 1035 904 905 916 915 1025 1026 1037 1036
          905 906 917 916 1026 1027 1038 1037 906 907 918 917
          1027 1028 1039 1038 907 908 919 918 1028 1029 1040 1039
          908 909 920 919 1029 1030 1041 1040 909 910 921 920
          1030 1031 1042 1041 910 911 922 921 1031 1032 1043 1042
          911 912 923 922 1032 1033 1044 1043 913 914 925 924
          1034 1035 1046 1045 914 915 926 925 1035 1036 1047 1046
          915 916 927 926 1036 1037 1048 1047 916 917 928 927
          1037 1038 1049 1048 917 918 929 928 1038 1039 1050 1049
          918 919 930 929 1039 1040 1051 1050 919 920 931 930
          1040 1041 1052 1051 920 921 932 931 1041 1042 1053 1052
          921 922 933 932 1042 1043 1054 1053 922 923 934 933
          1043 1044 1055 1054 924 925 936 935 1045 1046 1057 1056
          925 926 937 936 1046 1047 1058 1057 926 927 938 937
          1047 1048 1059 1058 927 928 939 938 1048 1049 1060 1059
          928 929 940 939 1049 1050 1061 1060 929 930 941 940
          1050 1051 1062 1061 930 931 942 941 1051 1052 1063 1062
          931 932 943 942 1052 1053 1064 1063 932 933 944 943
          1053 1054 1065 1064 933 934 945 944 1054 1055 1066 1065
          935 936 947 946 1056 1057 1068 1067 936 937 948 947
          1057 1058 1069 1068 937 938 949 948 1058 1059 1070 1069
          938 939 950 949 1059 1060 1071 1070 939 940 951 950
          1060 1061 1072 1071 940 941 952 951 1061 1062 1073 1072
          941 942 953 952 1062 1063 1074 1073 942 943 954 953
          1063 1064 1075 1074 943 944 955 954 1064 1065 1076 1075
          944 945 956 955 1065 1066 1077 1076 946 947 958 957
          1067 1068 1079 1078 947 948 959 958 1068 1069 1080 1079
          948 949 960 959 1069 1070 1081 1080 949 950 961 960
          1070 1071 1082 1081 950 951 962 961 1071 1072 1083 1082
          951 952 963 962 1072 1073 1084 1083 952 953 964 963
          1073 1074 1085 1084 953 954 965 964 1074 1075 1086 1085
          954 955 966 965 1075 1076 1087 1086 955 956 967 966
          1076 1077 1088 1087 968 969 971 970 1089 1090 1092 1091
          969 972 973 971 1090 1093 1094 1092 972 974 975 973
          1093 1095 1096 1094 974 976 977 975 1095 1097 1098 1096
          976 978 979 977 1097 1099 1100 1098 978 980 981 979
          1099 1101 1102 1100 980 982 983 981 1101 1103 1104 1102
          982 984 985 983 1103 1105 1106 1104 984 986 987 985
          1105 1107 1108 1106 986 988 989 987 1107 1109 1110 1108
          970 971 991 990 1091 1092 1112 1111 971 973 992 991
          1092 1094 1113 1112 973 975 993 992 1094 1096 1114 1113
          975 977 994 993 1096 1098 1115 1114 977 979 995 994
          1098 1100 1116 1115 979 981 996 995 1100 1102 1117 1116
          981 983 997 996 1102 1104 1118 1117 983 985 998 997
          1104 1106 1119 1118 985 987 999 998 1106 1108 1120 1119
          987 989 1000 999 1108 1110 1121 1120 990 991 1002 1001
          1111 1112 1123 1122 991 992 1003 1002 1112 1113 1124 1123
          992 993 1004 1003 1113 1114 1125 1124 993 994 1005 1004
          1114 1115 1126 1125 994 995 1006 1005 1115 1116 1127 1126
          995 996 1007 1006 1116 1117 1128 1127 996 997 1008 1007
          1117 1118 1129 1128 997 998 1009 1008 1118 1119 1130 1129
          998 999 1010 1009 1119 1120 1131 1130 999 1000 1011 1010
          1120 1121 1132 1131 1001 1002 1013 1012 1122 1123 1134 1133
          1002 1003 1014 1013 1123 1124 1135 1134 1003 1004 1015 1014
          1124 1125 1136 1135 1004 1005 1016 1015 1125 1126 1137 1136
          1005 1006 1017 1016 1126 1127 1138 1137 1006 1007 1018 1017
          1127 1128 1139 1138 1007 1008 1019 1018 1128 1129 1140 1139
          1008 1009 1020 1019 1129 1130 1141 1140 1009 1010 1021 1020
          1130 1131 1142 1141 1010 1011 1022 1021 1131 1132 1143 1142
          1012 1013 1024 1023 1133 1134 1145 1144 1013 1014 1025 1024
          1134 1135 1146 1145 1014 1015 1026 1025 1135 1136 1147 1146
          1015 1016 1027 1026 1136 1137 1148 1147 1016 1017 1028 1027
          1137 1138 1149 1148 1017 1018 1029 1028 1138 1139 1150 1149
          1018 1019 1030 1029 1139 1140 1151 1150 1019 1020 1031 1030
          1140 1141 1152 1151 1020 1021 1032 1031 1141 1142 1153 1152
          1021 1022 1033 1032 1142 1143 1154 1153 1023 1024 1035 1034
          1144 1145 1156 1155 1024 1025 1036 1035 1145 1146 1157 1156
          1025 1026 1037 1036 1146 1147 1158 1157 1026 1027 1038 1037
          1147 1148 1159 1158 1027 1028 1039 1038 1148 1149 1160 1159
          1028 1029 1040 1039 1149 1150 1161 1160 1029 1030 1041 1040
          1150 1151 1162 1161 1030 1031 1042 1041 1151 1152 1163 1162
          1031 1032 1043 1042 1152 1153 1164 1163 1032 1033 1044 1043
          1153 1154 1165 1164 1034 1035 1046 1045 1155 1156 1167 1166
          1035 1036 1047 1046 1156 1157 1168 1167 1036 1037 1048 1047
          1157 1158 1169 1168 1037 1038 1049 1048 1158 1159 1170 1169
          1038 1039 1050 1049 1159 1160 1171 1170 1039 1040 1051 1050
          1160 1161 1172 1171 1040 1041 1052 1051 1161 1162 1173 1172
          1041 1042 1053 1052 1162 1163 1174 1173 1042 1043 1054 1053
          1163 1164 1175 1174 1043 1044 1055 1054 1164 1165 1176 1175
          1045 1046 1057 1056 1166 1167 1178 1177 1046 1047 1058 1057
          1167 1168 1179 1178 1047 1048 1059 1058 1168 1169 1180 1179
          1048 1049 1060 1059 1169 1170 1181 1180 1049 1050 1061 1060
          1170 1171 1182 1181 1050 1051 1062 1061 1171 1172 1183 1182
          1051 1052 1063 1062 1172 1173 1184 1183 1052 1053 1064 1063
          1173 1174 1185 1184 1053 1054 1065 1064 1174 1175 1186 1185
          1054 1055 1066 1065 1175 1176 1187 1186 1056 1057 1068 1067
          1177 1178 1189 1188 1057 1058 1069 1068 1178 1179 1190 1189
          1058 1059 1070 1069 1179 1180 1191 1190 1059 1060 1071 1070
          1180 1181 1192 1191 1060 1061 1072 1071 1181 1182 1193 1192
          1061 1062 1073 1072 1182 1183 1194 1193 1062 1063 1074 1073
          1183 1184 1195 1194 1063 1064 1075 1074 1184 1185 1196 1195
          1064 1065 1076 1075 1185 1186 1197 1196 1065 1066 1077 1076
          1186 1187 1198 1197 1067 1068 1079 1078 1188 1189 1200 1199
          1068 1069 1080 1079 1189 1190 1201 1200 1069 1070 1081 1080
          1190 1191 1202 1201 1070 1071 1082 1081 1191 1192 1203 1202
          1071 1072 1083 1082 1192 1193 1204 1203 1072 1073 1084 1083
          1193 1194 1205 1204 1073 1074 1085 1084 1194 1195 1206 1205
          1074 1075 1086 1085 1195 1196 1207 1206 1075 1076 1087 1086
          1196 1197 1208 1207 1076 1077 1088 1087 1197 1198 1209 1208
          1089 1090 1092 1091 1210 1211 1213 1212 1090 1093 1094 1092
          1211 1214 1215 1213 1093 1095 1096 1094 1214 1216 1217 1215
          1095 1097 1098 1096 1216 1218 1219 1217 1097 1099 1100 1098
          1218 1220 1221 1219 1099 1101 1102 1100 1220 1222 1223 1221
          1101 1103 1104 1102 1222 1224 1225 1223 1103 1105 1106 1104
          1224 1226 1227 1225 1105 1107 1108 1106 1226 1228 1229 1227
          1107 1109 1110 1108 1228 1230 1231 1229 1091 1092 1112 1111
          1212 1213 1233 1232 1092 1094 1113 1112 1213 1215 1234 1233
          1094 1096 1114 1113 1215 1217 1235 1234 1096 1098 1115 1114
          1217 1219 1236 1235 1098 1100 1116 1115 1219 1221 1237 1236
          1100 1102 1117 1116 1221 1223 1238 1237 1102 1104 1118 1117
          1223 1225 1239 1238 1104 1106 1119 1118 1225 1227 1240 1239
          1106 1108 1120 1119 1227 1229 1241 1240 1108 1110 1121 1120
          1229 1231 1242 1241 1111 1112 1123 1122 1232 1233 1244 1243
          1112 1113 1124 1123 1233 1234 1245 1244 1113 1114 1125 1124
          1234 1235 1246 1245 1114 1115 1126 1125 1235 1236 1247 1246
          1115 1116 1127 1126 1236 1237 1248 1247 1116 1117 1128 1127
          1237 1238 1249 1248 1117 1118 1129 1128 1238 1239 1250 1249
          1118 1119 1130 1129 1239 1240 1251 1250 1119 1120 1131 1130
          1240 1241 1252 1251 1120 1121 1132 1131 1241 1242 1253 1252
          1122 1123 1134 1133 1243 1244 1255 1254 1123 1124 1135 1134
          1244 1245 1256 1255 1124 1125 1136 1135 1245 1246 1257 1256
          1125 1126 1137 1136 1246 1247 1258 1257 1126 1127 1138 1137
          1247 1248 1259 1258 1127 1128 1139 1138 1248 1249 1260 1259
          1128 1129 1140 1139 1249 1250 1261 1260 1129 1130 1141 1140
          1250 1251 1262 1261 1130 1131 1142 1141 1251 1252 1263 1262
          1131 1132 1143 1142 1252 1253 1264 1263 1133 1134 1145 1144
          1254 1255 1266 1265 1134 1135 1146 1145 1255 1256 1267 1266
          1135 1136 1147 1146 1256 1257 1268 1267 1136 1137 1148 1147
          1257 1258 1269 1268 1137 1138 1149 1148 1258 1259 1270 1269
          1138 1139 1150 1149 1259 1260 1271 1270 1139 1140 1151 1150
          1260 1261 1272 1271 1140 1141 1152 1151 1261 1262 1273 1272
          1141 1142 1153 1152 1262 1263 1274 1273 1142 1143 1154 1153
          1263 1264 1275 1274 1144 1145 1156 1155 1265 1266 1277 1276
          1145 1146 1157 1156 1266 1267 1278 1277 1146 1147 1158 1157
          1267 1268 1279 1278 1147 1148 1159 1158 1268 1269 1280 1279
          1148 1149 1160 1159 1269 1270 1281 1280 1149 1150 1161 1160
          1270 1271 1282 1281 1150 1151 1162 1161 1271 1272 1283 1282
          1151 1152 1163 1162 1272 1273 1284 1283 1152 1153 1164 1163
          1273 1274 1285 1284 1153 1154 1165 1164 1274 1275 1286 1285
          1155 1156 1167 1166 1276 1277 1288 1287 1156 1157 1168 1167
          1277 1278 1289 1288 1157 1158 1169 1168 1278 1279 1290 1289
          1158 1159 1170 1169 1279 1280 1291 1290 1159 1160 1171 1170
          1280 1281 1292 1291 1160 1161 1172 1171 1281 1282 1293 1292
          1161 1162 1173 1172 1282 1283 1294 1293 1162 1163 1174 1173
          1283 1284 1295 1294 1163 1164 1175 1174 1284 1285 1296 1295
          1164 1165 1176 1175 1285 1286 1297 1296 1166 1167 1178 1177
          1287 1288 1299 1298 1167 1168 1179 1178 1288 1289 1300 1299
          1168 1169 1180 1179 1289 1290 1301 1300 1169 1170 1181 1180
          1290 1291 1302 1301 1170 1171 1182 1181 1291 1292 1303 1302
          1171 1172 1183 1182 1292 1293 1304 1303 1172 1173 1184 1183
          1293 1294 1305 1304 1173 1174 1185 1184 1294 1295 1306 1305
          1174 1175 1186 1185 1295 1296 1307 1306 1175 1176 1187 1186
          1296 1297 1308 1307 1177 1178 1189 1188 1298 1299 1310 1309
          1178 1179 1190 1189 1299 1300 1311 1310 1179 1180 1191 1190
          1300 1301 1312 1311 1180 1181 1192 1191 1301 1302 1313 1312
          1181 1182 1193 1192 1302 1303 1314 1313 1182 1183 1194 1193
          1303 1304 1315 1314 1183 1184 1195 1194 1304 1305 1316 1315
          1184 1185 1196 1195 1305 1306 1317 1316 1185 1186 1197 1196
          1306 1307 1318 1317 1186 1187 1198 1197 1307 1308 1319 1318
          1188 1189 1200 1199 1309 1310 1321 1320 1189 1190 1201 1200
          1310 1311 1322 1321 1190 1191 1202 1201 1311 1312 1323 1322
          1191 1192 1203 1202 1312 1313 1324 1323 1192 1193 1204 1203
          1313 1314 1325 1324 1193 1194 1205 1204 1314 1315 1326 1325
          1194 1195 1206 1205 1315 1316 1327 1326 1195 1196 1207 1206
          1316 1317 1328 1327 1196 1197 1208 1207 1317 1318 1329 1328
          1197 1198 1209 1208 1318 1319 1330 1329
        </DataArray>
        <DataArray type="Int32" Name="offsets" NumberOfComponents="1" format="ascii">
          8 16 24 32 40 48 56 64 72 80 88 96
          104 112 120 128 136 144 152 160 168 176 184 192
          200 208 216 224 232 240 248 256 264 272 280 288
          296 304 312 320 328 336 344 352 360 368 376 384
          392 400 408 416 424 432 440 448 456 464 472 480
          488 496 504 512 520 528 536 544 552 560 568 576
          584 592 600 608 616 624 632 640 648 656 664 672
          680 688 696 704 712 720 728 736 744 752 760 768
          776 784 792 800 808 816 824 832 840 848 856 864
          872 880 888 896 904 912 920 928 936 944 952 960
          968 976 984 992 1000 1008 1016 1024 1032 1040 1048 1056
          1064 1072 1080 1088 1096 1104 1112 1120 1128 1136 1144 1152
          1160 1168 1176 1184 1192 1200 1208 1216 1224 1232 1240 1248
          1256 1264 1272 1280 1288 1296 1304 1312 1320 1328 1336 1344
          1352 1360 1368 1376 1384 1392 1400 1408 1416 1424 1432 1440
          1448 1456 1464 1472 1480 1488 1496 1504 1512 1520 1528 1536
          1544 1552 1560 1568 1576 1584 1592 1600 1608 1616 1624 1632
          1640 1648 1656 1664 1672 1680 1688 1696 1704 1712 1720 1728
          1736 1744 1752 1760 1768 1776 1784 1792 1800 1808 1816 1824
          1832 1840 1848 1856 1864 1872 1880 1888 1896 1904 1912 1920
          1928 1936 1944 1952 1960 1968 1976 1984 1992 2000 2008 2016
          2024 2032 2040 2048 2056 2064 2072 2080 2088 2096 2104 2112
          2120 2128 2136 2144 2152 2160 2168 2176 2184 2192 2200 2208
          2216 2224 2232 2240 2248 2256 2264 2272 2280 2288 2296 2304
          2312 2320 2328 2336 2344 2352 2360 2368 2376 2384 2392 2400
          2408 2416 2424 2432 2440 2448 2456 2464 2472 2480 2488 2496
          2504 2512 2520 2528 2536 2544 2552 2560 2568 2576 2584 2592
          2600 2608 2616 2624 2632 2640 2648 2656 2664 2672 2680 2688
          2696 2704 2712 2720 2728 2736 2744 2752 2760 2768 2776 2784
          2792 2800 2808 2816 2824 2832 2840 2848 2856 2864 2872 2880
          2888 2896 2904 2912 2920 2928 2936 2944 2952 2960 2968 2976
          2984 2992 3000 3008 3016 3024 3032 3040 3048 3056 3064 3072
          3080 3088 3096 3104 3112 3120 3128 3136 3144 3152 3160 3168
          3176 3184 3192 3200 3208 3216 3224 3232 3240 3248 3256 3264
          3272 3280 3288 3296 3304 3312 3320 3328 3336 3344 3352 3360
          3368 3376 3384 3392 3400 3408 3416 3424 3432 3440 3448 3456
          3464 3472 3480 3488 3496 3504 3512 3520 3528 3536 3544 3552
          3560 3568 3576 3584 3592 3600 3608 3616 3624 3632 3640 3648
          3656 3664 3672 3680 3688 3696 3704 3712 3720 3728 3736 3744
          3752 3760 3768 3776 3784 3792 3800 3808 3816 3824 3832 3840
          3848 3856 3864 3872 3880 3888 3896 3904 3912 3920 3928 3936
          3944 3952 3960 3968 3976 3984 3992 4000 4008 4016 4024 4032
          4040 4048 4056 4064 4072 4080 4088 4096 4104 4112 4120 4128
          4136 4144 4152 4160 4168 4176 4184 4192 4200 4208 4216 4224
          4232 4240 4248 4256 4264 4272 4280 4288 4296 4304 4312 4320
          4328 4336 4344 4352 4360 4368 4376 4384 4392 4400 4408 4416
          4424 4432 4440 4448 4456 4464 4472 4480 4488 4496 4504 4512
          4520 4528 4536 4544 4552 4560 4568 4576 4584 4592 4600 4608
          4616 4624 4632 4640 4648 4656 4664 4672 4680 4688 4696 4704
          4712 4720 4728 4736 4744 4752 4760 4768 4776 4784 4792 4800
          4808 4816 4824 4832 4840 4848 4856 4864 4872 4880 4888 4896
          4904 4912 4920 4928 4936 4944 4952 4960 4968 4976 4984 4992
          5000 5008 5016 5024 5032 5040 5048 5056 5064 5072 5080 5088
          5096 5104 5112 5120 5128 5136 5144 5152 5160 5168 5176 5184
          5192 5200 5208 5216 5224 5232 5240 5248 5256 5264 5272 5280
          5288 5296 5304 5312 5320 5328 5336 5344 5352 5360 5368 5376
          5384 5392 5400 5408 5416 5424 5432 5440 5448 5456 5464 5472
          5480 5488 5496 5504 5512 5520 5528 5536 5544 5552 5560 5568
          5576 5584 5592 5600 5608 5616 5624 5632 5640 5648 5656 5664
          5672 5680 5688 5696 5704 5712 5720 5728 5736 5744 5752 5760
          5768 5776 5784 5792 5800 5808 5816 5824 5832 5840 5848 5856
          5864 5872 5880 5888 5896 5904 5912 5920 5928 5936 5944 5952
          5960 5968 5976 5984 5992 6000 6008 6016 6024 6032 6040 6048
          6056 6064 6072 6080 6088 6096 6104 6112 6120 6128 6136 6144
          6152 6160 6168 6176 6184 6192 6200 6208 6216 6224 6232 6240
          6248 6256 6264 6272 6280 6288 6296 6304 6312 6320 6328 6336
          6344 6352 6360 6368 6376 6384 6392 6400 6408 6416 6424 6432
          6440 6448 6456 6464 6472 6480 6488 6496 6504 6512 6520 6528
          6536 6544 6552 6560 6568 6576 6584 6592 6600 6608 6616 6624
          6632 6640 6648 6656 6664 6672 6680 6688 6696 6704 6712 6720
          6728 6736 6744 6752 6760 6768 6776 6784 6792 6800 6808 6816
          6824 6832 6840 6848 6856 6864 6872 6880 6888 6896 6904 6912
          6920 6928 6936 6944 6952 6960 6968 6976 6984 6992 7000 7008
          7016 7024 7032 7040 7048 7056 7064 7072 7080 7088 7096 7104
          7112 7120 7128 7136 7144 7152 7160 7168 7176 7184 7192 7200
          7208 7216 7224 7232 7240 7248 7256 7264 7272 7280 7288 7296
          7304 7312 7320 7328 7336 7344 7352 7360 7368 7376 7384 7392
          7400 7408 7416 7424 7432 7440 7448 7456 7464 7472 7480 7488
          7496 7504 7512 7520 7528 7536 7544 7552 7560 7568 7576 7584
          7592 7600 7608 7616 7624 7632 7640 7648 7656 7664 7672 7680
          7688 7696 7704 7712 7720 7728 7736 7744 7752 7760 7768 7776
          7784 7792 7800 7808 7816 7824 7832 7840 7848 7856 7864 7872
          7880 7888 7896 7904 7912 7920 7928 7936 7944 7952 7960 7968
          7976 7984 7992 8000
        </DataArray>
        <DataArray type="UInt8" Name="types" NumberOfComponents="1" format="ascii">
          12 12 12 12 12 12 12 12 12 12 12 12
          12 12 12 12 12 12 12 12 12 12 12 12
          12 12 12 12 12 12 12 12 12 12 12 12
          12 12 12 12 12 12 12 12 12 12 12 12
          12 12 12 12 12 12 12 12 12 12 12 12
          12 12 12 12 12 12 12 12 12 12 12 12
          12 12 12 12 12 12 12 12 12 12 12 12
          12 12 12 12 12 12 12 12 12 12 12 12
          12 12 12 12 12 12 12 12 12 12 12 12
          12 12 12 12 12 12 12 12 12 12 12 12
          12 12 12 12 12 12 12 12 12 12 12 12
          12 12 12 12 12 12 12 12 12 12 12 12
          12 12 12 12 12 12 12 12 12 12 12 12
          12 12 12 12 12 12 12 12 12 12 12 12
          12 12 12 12 12 12 12 12 12 12 12 12
          12 12 12 12 12 12 12 12 12 12 12 12
          12 12 12 12 12 12 12 12 12 12 12 12
          12 12 12 12 12 12 12 12 12 12 12 12
          12 12 12 12 12 12 12 12 12 12 12 12
          12 12 12 12 12 12 12 12 12 12 12 12
          12 12 12 12 12 12 12 12 12 12 12 12
          12 12 12 12 12 12 12 12 12 12 12 12
          12 12 12 12 12 12 12 12 12 12 12 12
          12 12 12 12 12 12 12 12 12 12 12 12
          12 12 12 12 12 12 12 12 12 12 12 12
          12 12 12 12 12 12 12 12 12 12 12 12
          12 12 12 12 12 12 12 12 12 12 12 12
          12 12 12 12 12 12 12 12 12 12 12 12
          12 12 12 12 12 12 12 12 12 12 12 12
          12 12 12 12 12 12 12 12 12 12 12 12
          12 12 12 12 12 12 12 12 12 12 12 12
          12 12 12 12 12 12 12 12 12 12 12 12
          12 12 12 12 12 12 12 12 12 12 12 12
          12 12 12 12 12 12 12 12 12 12 12 12
          12 12 12 12 12 12 12 12 12 12 12 12
          12 12 12 12 12 12 12 12 12 12 12 12
          12 12 12 12 12 12 12 12 12 12 12 12
          12 12 12 12 12 12 12 12 12 12 12 12
          12 12 12 12 12 12 12 12 12 12 12 12
          12 12 12 12 12 12 12 12 12 12 12 12
          12 12 12 12 12 12 12 12 12 12 12 12
          12 12 12 12 12 12 12 12 12 12 12 12
          12 12 12 12 12 12 12 12 12 12 12 12
          12 12 12 12 12 12 12 12 12 12 12 12
          12 12 12 12 12 12 12 12 12 12 12 12
          12 12 12 12 12 12 12 12 12 12 12 12
          12 12 12 12 12 12 12 12 12 12 12 12
          12 12 12 12 12 12 12 12 12 12 12 12
          12 12 12 12 12 12 12 12 12 12 12 12
          12 12 12 12 12 12 12 12 12 12 12 12
          12 12 12 12 12 12 12 12 12 12 12 12
          12 12 12 12 12 12 12 12 12 12 12 12
          12 12 12 12 12 12 12 12 12 12 12 12
          12 12 12 12 12 12 12 12 12 12 12 12
          12 12 12 12 12 12 12 12 12 12 12 12
          12 12 12 12 12 12 12 12 12 12 12 12
          12 12 12 12 12 12 12 12 12 12 12 12
          12 12 12 12 12 12 12 12 12 12 12 12
          12 12 12 12 12 12 12 12 12 12 12 12
          12 12 12 12 12 12 12 12 12 12 12 12
          12 12 12 12 12 12 12 12 12 12 12 12
          12 12 12 12 12 12 12 12 12 12 12 12
          12 12 12 12 12 12 12 12 12 12 12 12
          12 12 12 12 12 12 12 12 12 12 12 12
          12 12 12 12 12 12 12 12 12 12 12 12
          12 12 12 12 12 12 12 12 12 12 12 12
          12 12 12 12 12 12 12 12 12 12 12 12
          12 12 12 12 12 12 12 12 12 12 12 12
          12 12 12 12 12 12 12 12 12 12 12 12
          12 12 12 12 12 12 12 12 12 12 12 12
          12 12 12 12 12 12 12 12 12 12 12 12
          12 12 12 12 12 12 12 12 12 12 12 12
          12 12 12 12 12 12 12 12 12 12 12 12
          12 12 12 12 12 12 12 12 12 12 12 12
          12 12 12 12 12 12 12 12 12 12 12 12
          12 12 12 12 12 12 12 12 12 12 12 12
          12 12 12 12 12 12 12 12 12 12 12 12
          12 12 12 12 12 12 12 12 12 12 12 12
          12 12 12 12 12 12 12 12 12 12 12 12
          12 12 12 12 12 12 12 12 12 12 12 12
          12 12 12 12 12 12 12 12 12 12 12 12
          12 12 12 12 12 12 12 12 12 12 12 12
          12 12 12 12 12 12 12 12 12 12 12 12
          12 12 12 12
        </DataArray>
      </Cells>
    </Piece>
  </UnstructuredGrid>
</VTKFile>
